!Keysight Technologies,N5222A,MY51421047,A.10.65.16
!Date: Friday, September 25, 2026 12:51:08
!Correction: S11(Full 2 Port(1,2)) 
!S1P File: Measurement: S11:
# Hz S  RI   R 50
10000000 0.01337178 0.00089339109
142450000 0.024509337 -0.0089238873
274900000 0.0084460909 -0.018782206
407350000 -0.0052236491 -0.0045658723
539800000 0.0066718967 0.0087668709
672250000 0.016813612 -0.0026710783
804700000 0.0042032353 -0.010900382
937150000 -0.003917417 0.0038884273
1069600000 0.011261431 0.011563998
1202050000 0.018746037 -0.0027989754
1334500000 0.0043584672 -0.0092537254
1466950000 -3.2867381e-005 0.0045782421
1599400000 0.012091884 0.0067542377
1731850000 0.011497748 -0.0047523342
1864300000 -0.0021267433 0.000779956
1996750000 0.0056117903 0.017295389
2129200000 0.02601446 0.010332643
2261650000 0.022629289 -0.011613405
2394100000 0.005591637 -0.008870651
2526550000 0.010065692 0.0037135426
2659000000 0.024534216 -0.0048413649
2791450000 0.014241111 -0.022074779
2923900000 -0.002656902 -0.014887853
3056350000 0.0016371125 -0.00091569265
3188800000 0.013543182 -0.0071652359
3321250000 0.0040424392 -0.018567657
3453700000 -0.0084239626 -0.010372877
3586150000 -0.0019479532 0.0022379372
3718600000 0.0091088824 -0.0051984
3851050000 0.00079363509 -0.0175472
3983500000 -0.015216166 -0.01102873
4115950000 -0.015149723 0.0057779374
4248400000 -0.0019970897 0.0130033
4380850000 0.010012743 0.0070628556
4513300000 0.012432075 -0.0034044476
4645750000 0.0064715282 -0.011137189
4778200000 -0.00098466664 -0.011051461
4910650000 -0.0024075757 -0.0078898454
5043100000 -0.00035024836 -0.010515802
5175550000 -0.0059327218 -0.016644439
5308000000 -0.017856855 -0.01506449
5440450000 -0.022505039 -0.0059544868
5572900000 -0.021514414 0.0011642402
5705350000 -0.020241313 0.0045568822
5837800000 -0.018138427 0.0073775318
5970250000 -0.016392337 0.0065243812
6102700000 -0.021101866 0.0068707303
6235150000 -0.024118811 0.016622555
6367600000 -0.012092855 0.02578936
6500050000 0.00012531993 0.015997412
6632500000 -0.0069736065 0.0018972369
6764950000 -0.022520369 0.0082467608
6897400000 -0.018527973 0.022966096
7029850000 -0.0058286055 0.020832216
7162300000 -0.010286291 0.010878771
7294750000 -0.017967209 0.017716829
7427200000 -0.011727756 0.023892369
7559650000 -0.0068435227 0.01511581
7692100000 -0.01904764 0.01261567
7824550000 -0.022580849 0.026027109
7957000000 -0.010904089 0.02932591
8089450000 -0.012547524 0.017086677
8221900000 -0.030228686 0.023570776
8354350000 -0.02700229 0.04624043
8486800000 -0.004921542 0.049825944
8619250000 -0.0012100815 0.0352767
8751700000 -0.01122773 0.036303926
8884150000 -0.0067928173 0.045793004
9016600000 0.0019307046 0.040207464
9149050000 -0.0088363849 0.037707049
9281500000 -0.01009777 0.057104703
9413950000 0.016663417 0.064946972
9546400000 0.030446585 0.037438598
9678850000 0.0054850336 0.023080742
9811300000 -0.0088337669 0.049298599
9943750000 0.017920313 0.063944034
10076200000 0.03381842 0.039823808
10208650000 0.01315735 0.026716355
10341100000 0.0049061277 0.047668293
10473550000 0.027868798 0.050478138
10606000000 0.027547382 0.027113577
10738450000 0.0028194224 0.032048967
10870900000 0.011138861 0.060648702
11003350000 0.042953618 0.052532479
11135800000 0.036993098 0.021930311
11268250000 0.006558774 0.031577069
11400700000 0.019836131 0.062226992
11533150000 0.05235897 0.049633276
11665600000 0.042176615 0.019962505
11798050000 0.015644623 0.031826179
11930500000 0.030461397 0.057440326
12062950000 0.055600747 0.044179156
12195400000 0.044985097 0.025171714
12327850000 0.036366001 0.03983229
12460300000 0.061411534 0.044824682
12592750000 0.070981622 0.01138315
12725200000 0.037036989 -0.0019744327
12857650000 0.025858447 0.027837886
12990100000 0.055556133 0.036311544
13122550000 0.062120203 0.0055961129
13255000000 0.031451769 0.0035197653
13387450000 0.034094796 0.034762565
13519900000 0.068469308 0.029465443
13652350000 0.065560326 -0.0058333622
13784800000 0.032598868 -0.0017727944
13917250000 0.041563142 0.030510006
14049700000 0.078386858 0.018395364
14182150000 0.068660796 -0.020803256
14314600000 0.031249393 -0.013683521
14447050000 0.043105796 0.023472475
14579500000 0.085321225 0.0084548546
14711950000 0.077174202 -0.03687438
14844400000 0.037805561 -0.036204007
14976850000 0.040640008 -0.0070691602
15109300000 0.06630449 -0.018401086
15241750000 0.052074421 -0.046974041
15374200000 0.024123635 -0.034473978
15506650000 0.039358508 -0.012318487
15639100000 0.062034186 -0.032992486
15771550000 0.040820848 -0.060793936
15904000000 0.012387886 -0.045181107
16036450000 0.024408629 -0.024190996
16168900000 0.0407544 -0.039289575
16301350000 0.023441376 -0.055297431
16433800000 0.0093486169 -0.038432345
16566250000 0.028396914 -0.029698664
16698700000 0.0366912 -0.056701917
16831150000 0.0067561246 -0.070025302
16963600000 -0.0088779014 -0.043288998
17096050000 0.016849201 -0.031610999
17228500000 0.027021196 -0.064948238
17360950000 -0.011095393 -0.081214786
17493400000 -0.03166208 -0.048169851
17625850000 -0.0023489029 -0.031525541
17758300000 0.0085614538 -0.066900954
17890750000 -0.033405412 -0.081586435
18023200000 -0.054295879 -0.042338412
18155650000 -0.020749742 -0.022385666
18288100000 -0.0064681852 -0.057591349
18420550000 -0.0479532 -0.072416298
18553000000 -0.068876103 -0.030548399
18685450000 -0.030525459 -0.0087659676
18817900000 -0.011718652 -0.048057143
18950350000 -0.052935574 -0.068818331
19082800000 -0.076639935 -0.031020626
19215250000 -0.0452458 -0.013553794
19347700000 -0.038139347 -0.04685577
19480150000 -0.079604968 -0.050206646
19612600000 -0.085187353 -0.0053319093
19745050000 -0.043729298 -0.0036716345
19877500000 -0.049859382 -0.04795295
20009950000 -0.10267421 -0.039921645
20142400000 -0.10147565 0.014386732
20274850000 -0.056330424 0.011461655
20407300000 -0.068774618 -0.031005856
20539750000 -0.11732569 -0.010795246
20672200000 -0.10039934 0.043419879
20804650000 -0.05051085 0.026644116
20937100000 -0.076506153 -0.019045876
21069550000 -0.12639801 0.015365052
21202000000 -0.092869706 0.067891791
21334450000 -0.042781256 0.033345778
21466900000 -0.086319476 -0.011328927
21599350000 -0.13401037 0.040508833
21731800000 -0.082691766 0.092299677
21864250000 -0.034845278 0.041539185
21996700000 -0.092946477 0.0004566632
22129150000 -0.13482578 0.064923204
22261600000 -0.07301043 0.10706049
22394050000 -0.038976151 0.04584353
22526500000 -0.10784645 0.022203274
22658950000 -0.13187434 0.10017406
22791400000 -0.055155791 0.12973887
22923850000 -0.031215146 0.060013421
23056300000 -0.10283857 0.049659804
23188750000 -0.10761957 0.1291077
23321200000 -0.026737129 0.13519554
23453650000 -0.025855746 0.059040487
23586100000 -0.10421402 0.070491984
23718550000 -0.086322084 0.15564118
23851000000 0.00020857611 0.13958813
23983450000 -0.021139352 0.057707764
24115900000 -0.10065777 0.090726525
24248350000 -0.061319999 0.17445326
24380800000 0.022082999 0.1372831
24513250000 -0.021015296 0.063295074
24645700000 -0.089707188 0.11977288
24778150000 -0.024766469 0.19158857
24910600000 0.04877891 0.13107358
25043050000 -0.015224682 0.066400558
25175500000 -0.070186816 0.14135441
25307950000 0.010899461 0.19823723
25440400000 0.068851545 0.12064141
25572850000 -0.0078579411 0.070774145
25705300000 -0.045137048 0.15567474
25837750000 0.045344405 0.19235341
25970200000 0.083856098 0.10339171
26102650000 -0.0028951995 0.075325415
26235100000 -0.017662566 0.16729914
26367550000 0.07921423 0.17998989
26500000000 0.093131728 0.086367004
