!Keysight Technologies,N5222A,MY51421047,A.10.65.16
!Date: Friday, September 25, 2026 12:48:36
!Correction: S11(Full 2 Port(1,2)) 
!S21(Full 2 Port(1,2)) 
!S12(Full 2 Port(1,2)) 
!S22(Full 2 Port(1,2)) 
!S2P File: Measurements: S11, S21, S12, S22:
# Hz S  RI   R 50
10000000 0.013425034 -0.00019841845 0.98410046 -0.06682042 0.98437887 -0.066101804 0.014532937 0.0019483258
142450000 0.024545934 -0.0089615965 0.58884227 -0.77401793 0.58906919 -0.77409834 0.02465063 -0.0093035093
274900000 0.0082759885 -0.018783979 -0.18767978 -0.94680327 -0.18782605 -0.94770932 0.0076326253 -0.019557636
407350000 -0.0053485623 -0.0046759397 -0.82704473 -0.48516312 -0.82748228 -0.48565423 -0.0064172847 -0.0049668667
539800000 0.0065402295 0.0087382533 -0.90802133 0.29377019 -0.90805608 0.29347897 0.0065233163 0.0097043347
672250000 0.01669826 -0.0025674715 -0.38319612 0.86869353 -0.38349694 0.86801839 0.016834073 -0.0020622369
804700000 0.0043078917 -0.010800829 0.39087704 0.85987878 0.39100546 0.85998625 0.0041223085 -0.010193733
937150000 -0.0038849025 0.0039247298 0.89780217 0.27938116 0.89779246 0.27974534 -0.0027911847 0.0041743703
1069600000 0.011409414 0.011616958 0.80307674 -0.48042214 0.8031224 -0.48041201 0.012333752 0.010339936
1202050000 0.018719947 -0.0026892086 0.17646286 -0.91528559 0.17648079 -0.91506594 0.018976316 -0.0046115289
1334500000 0.0043240916 -0.0091050062 -0.56191444 -0.7390902 -0.56192046 -0.73909903 0.0034708374 -0.010336699
1466950000 -0.00014763797 0.0046839532 -0.9218244 -0.073663577 -0.92174751 -0.073713489 -0.0012276463 0.0041053747
1599400000 0.012052149 0.0067592617 -0.66752368 0.63484699 -0.66753608 0.63496006 0.011816441 0.006506694
1731850000 0.011399034 -0.0046188678 0.027183477 0.9178291 0.027361872 0.91785222 0.011164766 -0.0073453183
1864300000 -0.0021097402 0.00071015127 0.69916743 0.58991277 0.69965565 0.59023041 -0.0061831344 -0.0031129241
1996750000 0.0055500274 0.017134985 0.90295976 -0.12645647 0.90291041 -0.12658809 -0.0013542657 0.017690536
2129200000 0.026066018 0.010017087 0.50754488 -0.75406569 0.5074876 -0.75393188 0.023172496 0.014051843
2261650000 0.022745898 -0.011680062 -0.22158362 -0.87905169 -0.2213556 -0.87894863 0.021937693 -0.011685299
2394100000 0.0057337591 -0.0091460273 -0.80003518 -0.42069125 -0.7996664 -0.42092487 -0.0026349593 -0.012693105
2526550000 0.010159762 0.0036737369 -0.84506619 0.3135592 -0.84494537 0.3136701 -0.0052713547 0.010566535
2659000000 0.024538955 -0.0048366389 -0.33011192 0.83514601 -0.32994619 0.83536446 0.016543098 0.014644136
2791450000 0.014425078 -0.02218681 0.39971015 0.80146396 0.39949754 0.80165052 0.022739371 -0.0038659759
2923900000 -0.0026285565 -0.015151275 0.86130333 0.2375841 0.86137533 0.23762532 0.0073056566 -0.010504454
3056350000 0.001691527 -0.0010187449 0.75021893 -0.48077649 0.75046325 -0.48112586 0.0015204917 0.0017001133
3188800000 0.013662481 -0.0071936343 0.14305802 -0.87745279 0.14285032 -0.8773306 0.012877397 0.0061529865
3321250000 0.0042106337 -0.018682716 -0.55570537 -0.69116527 -0.55566627 -0.69055045 0.017189326 -0.0031539553
3453700000 -0.0085123964 -0.010487034 -0.88317454 -0.048615944 -0.88328391 -0.048538562 0.010692026 -0.0084414128
3586150000 -0.0019079852 0.0021635017 -0.6247918 0.62350017 -0.62473589 0.62311161 0.0065341373 -0.0040946878
3718600000 0.009169396 -0.005197675 0.046284731 0.87928081 0.045700017 0.87938505 0.011763857 -0.0020671973
3851050000 0.00094609323 -0.017720807 0.68328267 0.55224311 0.68314034 0.55221391 0.015329772 -0.007804215
3983500000 -0.015219045 -0.010936001 0.86530155 -0.138625 0.86539894 -0.13851604 0.012397395 -0.016596857
4115950000 -0.015143381 0.0059930221 0.47411776 -0.73428124 0.47447076 -0.73494703 0.0023344066 -0.021649882
4248400000 -0.0018790333 0.013260222 -0.22870696 -0.84199363 -0.22911769 -0.84218663 -0.0096296258 -0.01828054
4380850000 0.009939909 0.0071396944 -0.77747262 -0.39168987 -0.77743804 -0.39183033 -0.016918186 -0.0070949499
4513300000 0.012306298 -0.0034016764 -0.80937225 0.3153097 -0.80965805 0.31552604 -0.01237639 0.0051105851
4645750000 0.0064325216 -0.011162097 -0.30574125 0.81099641 -0.30583057 0.81144416 -0.0016273276 0.0068737473
4778200000 -0.00092819252 -0.010998185 0.3979314 0.7684437 0.39785919 0.76833141 0.003273797 0.00051443069
4910650000 -0.0023086639 -0.0077440743 0.83580577 0.217178 0.83582008 0.21713361 -0.0025052375 -0.0050317575
5043100000 -0.00037568551 -0.010502748 0.71868092 -0.47540206 0.71893096 -0.47543907 -0.010470276 -0.00061112881
5175550000 -0.0060820449 -0.016682016 0.12671523 -0.85013884 0.12686922 -0.85056305 -0.0085429261 0.010958216
5308000000 -0.017768741 -0.014935651 -0.54656434 -0.661538 -0.54687285 -0.66140556 0.0063184672 0.013140559
5440450000 -0.022498403 -0.0059016077 -0.85607523 -0.036111403 -0.85576403 -0.036035866 0.012330555 -0.0025431826
5572900000 -0.021579215 0.00093261403 -0.59805644 0.61079478 -0.59811354 0.61097914 -0.0029220358 -0.014466865
5705350000 -0.020207556 0.0045580179 0.054208614 0.85132176 0.054492593 0.8516134 -0.016726922 -0.0011446895
5837800000 -0.018060585 0.007154128 0.66833442 0.52791309 0.66838872 0.52782422 -0.0063048946 0.013225873
5970250000 -0.016292883 0.00622749 0.83804476 -0.14360069 0.83759063 -0.14343524 0.0066858302 0.0017185875
6102700000 -0.021009447 0.0065856059 0.45252085 -0.7174207 0.45285648 -0.71798706 -0.0080224788 -0.011671469
6235150000 -0.023895143 0.01659712 -0.23034039 -0.814816 -0.23055634 -0.81513041 -0.025772026 0.0030559928
6367600000 -0.011958436 0.025568115 -0.75809216 -0.37359458 -0.75818408 -0.37327513 -0.01419225 0.022617476
6500050000 7.896778e-005 0.01556685 -0.78341281 0.31399703 -0.78345478 0.31357896 0.0019459019 0.014916811
6632500000 -0.0070550311 0.0018434779 -0.29004925 0.79072791 -0.28990477 0.79135144 -0.006239478 0.0044028042
6764950000 -0.022321291 0.0080718184 0.39316425 0.74304432 0.3932488 0.74343425 -0.013978473 0.018507738
6897400000 -0.018432429 0.022969345 0.81357938 0.20438673 0.81391096 0.20440415 0.0050708978 0.027168985
7029850000 -0.0058934712 0.020675933 0.69552678 -0.46769467 0.69537073 -0.46773997 0.015432194 0.0065334458
7162300000 -0.010117122 0.010794876 0.11711455 -0.8280763 0.11678146 -0.82835829 -0.0042309496 -0.0052254191
7294750000 -0.01784781 0.017614529 -0.5366053 -0.63971293 -0.53646797 -0.63978678 -0.015215185 0.013843399
7427200000 -0.01150011 0.023698417 -0.83317053 -0.029378533 -0.83276445 -0.028961772 0.0044074054 0.021633698
7559650000 -0.0066770436 0.015035151 -0.5781343 0.59956133 -0.57809609 0.59876859 0.0088316835 -0.00029398908
7692100000 -0.018956764 0.012449369 0.059098184 0.82884651 0.059199117 0.82872009 -0.016540496 -0.0023657605
7824550000 -0.022553124 0.026045859 0.6539585 0.50952685 0.65441567 0.50967211 -0.018817555 0.023863152
7957000000 -0.010750756 0.029352592 0.81487852 -0.1450312 0.81514949 -0.14514364 0.0069842427 0.023208017
8089450000 -0.012554464 0.017035466 0.43641213 -0.70232594 0.43669853 -0.70241606 0.0012342883 -0.0037013402
8221900000 -0.030160155 0.023550317 -0.22986577 -0.79270911 -0.22999701 -0.7926361 -0.02985232 0.007721433
8354350000 -0.026762303 0.046171803 -0.74076128 -0.3588683 -0.7408936 -0.35825887 -0.018234761 0.043754473
8486800000 -0.0048521315 0.049710706 -0.76148814 0.30986479 -0.76155907 0.31024003 0.02145439 0.034213714
8619250000 -0.0010163551 0.035001863 -0.27862176 0.77271229 -0.27882165 0.7729463 0.013299839 -0.0038258771
8751700000 -0.01114338 0.036382716 0.38723457 0.72255713 0.38782874 0.72267216 -0.022621801 0.0047034021
8884150000 -0.0062938249 0.045627918 0.79480249 0.19482757 0.7950477 0.19465496 -0.01108734 0.036378976
9016600000 0.0019789913 0.040033065 0.67540681 -0.45987853 0.67618024 -0.45987487 0.018350434 0.019544711
9149050000 -0.0086531015 0.037517492 0.11006467 -0.80861437 0.10979886 -0.80899668 -0.0049895151 -0.01028238
9281500000 -0.010136114 0.0570012 -0.52619761 -0.62142098 -0.52651858 -0.62131584 -0.039847948 0.017348336
9413950000 0.017133644 0.064534701 -0.81156832 -0.025215328 -0.81246096 -0.024966458 -0.015017612 0.056642983
9546400000 0.030750249 0.037299659 -0.56187093 0.58584899 -0.56218624 0.58636355 0.021702386 0.036318038
9678850000 0.0055459691 0.022918643 0.059848133 0.80863214 0.060057826 0.80909252 0.00054383249 0.0077028228
9811300000 -0.0087055471 0.049140126 0.64028454 0.49464688 0.64049315 0.49504852 -0.023163471 0.035328027
9943750000 0.01811208 0.063704967 0.794568 -0.14368083 0.79481351 -0.14376625 0.011090898 0.059581291
10076200000 0.034091629 0.039542142 0.42512035 -0.68545836 0.42526785 -0.68567258 0.037742563 0.022816813
10208650000 0.013201168 0.026508616 -0.22538148 -0.77389467 -0.22634073 -0.77446669 0.0017716003 -0.0033518365
10341100000 0.0050516198 0.04743851 -0.7248823 -0.34884006 -0.72525418 -0.34846297 -0.0213695 0.031563677
10473550000 0.02793912 0.050387476 -0.74328363 0.3042978 -0.74299294 0.30478847 0.01388001 0.048558857
10606000000 0.027681269 0.026799386 -0.27060392 0.75565034 -0.27092203 0.7562893 0.025397589 0.012002752
10738450000 0.0029019134 0.031947769 0.38099444 0.70533949 0.38089696 0.70552605 -0.014915186 0.0052040131
10870900000 0.011376156 0.060420994 0.77709866 0.18804 0.7769568 0.188632 -0.021104466 0.049174983
11003350000 0.043279063 0.052486543 0.65935004 -0.44976243 0.65944391 -0.4498848 0.024349546 0.056626499
11135800000 0.037095979 0.0216248 0.1071622 -0.79102397 0.10715706 -0.79053861 0.029924285 0.014277851
11268250000 0.0066091148 0.031441733 -0.51670146 -0.60732049 -0.51639479 -0.60731536 -0.010684912 0.014655001
11400700000 0.020000221 0.061951682 -0.79443204 -0.022393959 -0.79455167 -0.021912739 -0.005786526 0.057888005
11533150000 0.052602943 0.049332745 -0.5479005 0.57388639 -0.54780251 0.57449311 0.040620349 0.052376125
11665600000 0.042299494 0.019866129 0.059557762 0.79119468 0.059906516 0.79153281 0.03557333 0.0071052392
11798050000 0.015964204 0.031575404 0.62848037 0.48392135 0.6282413 0.48396289 -0.0059602112 0.01574881
11930500000 0.030784339 0.0572672 0.77807289 -0.14332646 0.77765912 -0.14342067 0.0081722373 0.055694565
12062950000 0.055686112 0.043954987 0.41433626 -0.67179281 0.41354325 -0.67222679 0.049978703 0.036178794
12195400000 0.045039389 0.024970854 -0.22204714 -0.75710922 -0.22196363 -0.75726217 0.026074748 -0.0080319075
12327850000 0.036376517 0.039298877 -0.71091813 -0.34028068 -0.71059954 -0.34017989 -0.01958804 0.015781494
12460300000 0.061947644 0.044530891 -0.72614068 0.29922187 -0.72624785 0.29921731 0.0031917193 0.063765623
12592750000 0.071207426 0.010999125 -0.26456955 0.73863512 -0.26467341 0.73871511 0.048583724 0.045209609
12725200000 0.037039652 -0.0022766141 0.37200215 0.69125366 0.3722901 0.6913209 0.03130291 0.006564897
12857650000 0.025990183 0.027581107 0.7618736 0.18473846 0.76203561 0.18475312 0.0013714511 0.027730828
12990100000 0.055873923 0.036047768 0.64545327 -0.44133013 0.64540541 -0.44158122 0.028903211 0.053169455
13122550000 0.06207579 0.0054914411 0.10486767 -0.77370751 0.10506934 -0.77382052 0.052245744 0.02142819
13255000000 0.031523537 0.0033832749 -0.50488412 -0.59563398 -0.50550508 -0.5958181 0.018586783 0.00034010055
13387450000 0.034245703 0.034766633 -0.7789107 -0.021649277 -0.77935046 -0.022253655 0.0010535745 0.037760627
13519900000 0.069060028 0.029263163 -0.53644121 0.56229037 -0.53679138 0.56237102 0.042328298 0.054270875
13652350000 0.06562493 -0.0060932757 0.058081288 0.77457976 0.058329545 0.7748664 0.058811858 0.011345056
13784800000 0.032715686 -0.0018194895 0.61520433 0.47469634 0.61543518 0.47500134 0.016240491 -0.0026555036
13917250000 0.041660015 0.030392563 0.76267576 -0.14057514 0.76256686 -0.14127955 0.0070437682 0.042512104
14049700000 0.078386053 0.018191487 0.40461394 -0.6579392 0.40429598 -0.65829748 0.056066249 0.051904067
14182150000 0.068793088 -0.021401322 -0.21702315 -0.74065286 -0.21652481 -0.74069154 0.067106239 0.0028996512
14314600000 0.031256251 -0.013930395 -0.69571692 -0.33345619 -0.69558805 -0.33361119 0.022732437 -0.0065723206
14447050000 0.043193128 0.023202248 -0.71150357 0.29416052 -0.71176869 0.29412657 0.018639598 0.038228318
14579500000 0.085538991 0.0078754667 -0.25741252 0.7230317 -0.25754476 0.72337556 0.071301915 0.03951446
14711950000 0.077225544 -0.037335929 0.3633264 0.675484 0.36329389 0.67558157 0.076684929 -0.019155145
14844400000 0.037769739 -0.036509253 0.74573189 0.18273892 0.74627513 0.18255803 0.021325741 -0.030087046
14976850000 0.040789861 -0.0072722491 0.63386375 -0.43298399 0.63401139 -0.43297631 0.010439953 0.018910006
15109300000 0.066415414 -0.018704755 0.10187942 -0.75882697 0.10127751 -0.75883836 0.057670753 0.026638038
15241750000 0.05207403 -0.047608994 -0.49425381 -0.58318192 -0.49436605 -0.58307022 0.063461341 -0.020364774
15374200000 0.024075948 -0.034837015 -0.76459879 -0.022847202 -0.76431191 -0.022617988 0.020116087 -0.024329111
15506650000 0.039641734 -0.012582357 -0.52683437 0.55283266 -0.52696079 0.55324298 0.021099526 0.016549829
15639100000 0.062130973 -0.03364116 0.05809154 0.75958055 0.058379959 0.75962639 0.063209437 0.0099807084
15771550000 0.040501777 -0.061309516 0.6019212 0.46515501 0.60214943 0.46515161 0.058697995 -0.036233831
15904000000 0.012325025 -0.045459203 0.74828649 -0.13539469 0.74873585 -0.13564315 0.014832953 -0.036459014
16036450000 0.024636 -0.024492247 0.39977619 -0.64707655 0.39930084 -0.6469906 0.015211957 0.0015046542
16168900000 0.040867068 -0.03982199 -0.21327592 -0.7283169 -0.21303071 -0.72864699 0.049744446 -0.0046366318
16301350000 0.023062078 -0.055655409 -0.68281955 -0.32847261 -0.68297338 -0.32869455 0.03913017 -0.038748425
16433800000 0.0092164334 -0.038937856 -0.70098752 0.28749731 -0.7011739 0.2879495 0.0043620137 -0.02540997
16566250000 0.028399363 -0.030220823 -0.25433201 0.71253431 -0.25415727 0.71239555 0.021586277 0.0082032224
16698700000 0.036570299 -0.057200219 0.35845321 0.664069 0.3585169 0.66382885 0.058469541 -0.013295909
16831150000 0.0064422488 -0.070455313 0.73191589 0.17859372 0.7317695 0.17872784 0.037511606 -0.053491928
16963600000 -0.0093149403 -0.043723643 0.62261689 -0.42384812 0.62272078 -0.42377594 -0.0023176989 -0.034090653
17096050000 0.016670337 -0.031974554 0.10066114 -0.74581027 0.100495 -0.74609435 0.021147165 0.0008293126
17228500000 0.026965668 -0.065518893 -0.48558757 -0.5716337 -0.48606336 -0.57150561 0.058021042 -0.029840954
17360950000 -0.011823871 -0.081715882 -0.74796778 -0.022829499 -0.74847919 -0.022929491 0.025664471 -0.072393261
17493400000 -0.031965591 -0.048361033 -0.51843804 0.54032779 -0.51902002 0.54020303 -0.019160695 -0.043797806
17625850000 -0.0025475577 -0.031988006 0.05613574 0.74712169 0.055548444 0.74716949 0.009466595 -0.0045549762
17758300000 0.0084179742 -0.067641504 0.59136981 0.45607212 0.59142816 0.45601565 0.04826574 -0.038883086
17890750000 -0.033876635 -0.081816338 0.7321915 -0.13207626 0.73248357 -0.13268946 0.0099814162 -0.083262473
18023200000 -0.054367546 -0.042610198 0.39308965 -0.63167781 0.39303452 -0.63237107 -0.037439521 -0.049351387
18155650000 -0.020648051 -0.022717228 -0.20821294 -0.71580583 -0.20790368 -0.71592146 -0.0059814323 -0.0082542999
18288100000 -0.0066826632 -0.058006648 -0.67037815 -0.32173216 -0.66978496 -0.3218419 0.0309819 -0.043775074
18420550000 -0.048441939 -0.072733551 -0.68502361 0.28105375 -0.68507212 0.28103858 -0.0098748561 -0.08409413
18553000000 -0.069000155 -0.030825531 -0.25128561 0.69653386 -0.25103179 0.69607645 -0.054392863 -0.047216859
18685450000 -0.030635884 -0.0090383124 0.35017127 0.65352064 0.3500798 0.65372521 -0.021236459 -0.00741354
18817900000 -0.011864243 -0.048734438 0.71949524 0.17448832 0.71938437 0.17467709 0.0092244474 -0.045251705
18950350000 -0.053553432 -0.068948038 0.60878563 -0.41605747 0.60869783 -0.41591966 -0.037570089 -0.073636368
19082800000 -0.076685056 -0.030991517 0.10021823 -0.72939461 0.09979438 -0.72973633 -0.068125509 -0.023350459
19215250000 -0.045364439 -0.013888461 -0.47610128 -0.56340593 -0.47642243 -0.56292003 -0.01756233 0.0071967752
19347700000 -0.038298137 -0.047135763 -0.73636526 -0.020888828 -0.7364527 -0.020985223 0.0096613849 -0.047030695
19480150000 -0.080119833 -0.050132561 -0.50693673 0.53065091 -0.5062412 0.53058082 -0.047997579 -0.074694306
19612600000 -0.085422635 -0.005262299 0.0531599 0.73134488 0.053221479 0.73102546 -0.075437158 -0.020170555
19745050000 -0.043913074 -0.0038721794 0.58053368 0.45006144 0.58079261 0.4500486 -0.022974893 -7.5282202e-005
19877500000 -0.050439622 -0.048321582 0.72050554 -0.13225988 0.72097093 -0.13219832 -0.014106334 -0.057682931
20009950000 -0.10355795 -0.039856669 0.38254267 -0.62003028 0.38320455 -0.62079692 -0.080769315 -0.064751446
20142400000 -0.10169373 0.014528695 -0.20175588 -0.70007062 -0.20176506 -0.70055062 -0.091840461 0.0050501102
20274850000 -0.056527153 0.011488207 -0.65747571 -0.3193216 -0.6577667 -0.31951958 -0.025998874 0.0146552
20407300000 -0.069521271 -0.030756721 -0.67451578 0.276797 -0.67471611 0.27688387 -0.025443692 -0.052223779
20539750000 -0.11801395 -0.010143429 -0.24573334 0.6822632 -0.24570353 0.68258792 -0.097108684 -0.047238339
20672200000 -0.1007541 0.043889243 0.33947104 0.64078462 0.33977485 0.64067107 -0.0945113 0.025762979
20804650000 -0.051173091 0.026756516 0.70611477 0.17616093 0.70638311 0.17577378 -0.024782231 0.020206911
20937100000 -0.077462211 -0.018765625 0.59950846 -0.40835479 0.59970242 -0.40872133 -0.038990796 -0.050297324
21069550000 -0.1272987 0.016034815 0.098110385 -0.7137484 0.098450683 -0.71383607 -0.11405 -0.030482743
21202000000 -0.092934139 0.068366446 -0.46183026 -0.55330938 -0.46170151 -0.55400223 -0.092819095 0.046513751
21334450000 -0.043373596 0.03383689 -0.72414017 -0.025991488 -0.72369295 -0.025885977 -0.020477904 0.020928925
21466900000 -0.087189049 -0.010579559 -0.49874774 0.52130657 -0.49854431 0.52133286 -0.056779828 -0.051050641
21599350000 -0.13463195 0.041742794 0.05150843 0.71300977 0.051442321 0.71370494 -0.1328755 -0.008947121
21731800000 -0.083253771 0.093052939 0.56182206 0.44370434 0.56217241 0.44372961 -0.093304299 0.067378774
21864250000 -0.035492558 0.041864388 0.70970279 -0.12340964 0.71002859 -0.12373607 -0.022952877 0.02634136
21996700000 -0.094212666 0.001336462 0.37665281 -0.61038864 0.37702367 -0.61048323 -0.076150768 -0.038620412
22129150000 -0.13568988 0.066493116 -0.19725832 -0.68283165 -0.19773275 -0.68309605 -0.14244486 0.022258637
22261600000 -0.073363304 0.10778692 -0.63830912 -0.31621477 -0.63866943 -0.31609201 -0.082118839 0.088012561
22394050000 -0.039556667 0.046410229 -0.66590726 0.26695424 -0.66565019 0.26728454 -0.023414826 0.025389843
22526500000 -0.109083 0.023421023 -0.24048755 0.67160249 -0.24040513 0.67139494 -0.096292846 -0.024833893
22658950000 -0.13206303 0.10186858 0.33183271 0.62358886 0.33213651 0.62374979 -0.14852296 0.055879157
22791400000 -0.055385754 0.13074216 0.68560052 0.17741203 0.68593246 0.17697126 -0.071341574 0.1118219
22923850000 -0.032003682 0.060847994 0.59381992 -0.3960714 0.59395379 -0.39629376 -0.022941129 0.037570041
23056300000 -0.10388532 0.050956793 0.097014286 -0.70315498 0.097088508 -0.70328134 -0.10301921 0.00017527466
23188750000 -0.10789427 0.13050301 -0.45097965 -0.54010391 -0.45111856 -0.54013091 -0.13692638 0.086297095
23321200000 -0.026902059 0.13610815 -0.70549268 -0.032719452 -0.70549703 -0.032399971 -0.05112426 0.12060375
23453650000 -0.026542688 0.059690516 -0.49692929 0.50849187 -0.49686718 0.50834292 -0.026197053 0.037756082
23586100000 -0.10503542 0.071822494 0.049774762 0.70379806 0.049910527 0.70391363 -0.11395418 0.026622836
23718550000 -0.085896224 0.15700845 0.54772007 0.43392664 0.54771572 0.43364584 -0.12187058 0.12187632
23851000000 0.0003815268 0.14025004 0.69405639 -0.11089882 0.69408041 -0.11126256 -0.027082663 0.13114497
23983450000 -0.021674078 0.058496527 0.3805376 -0.5964613 0.38038394 -0.59656584 -0.026004646 0.041096091
24115900000 -0.10096858 0.092084192 -0.19199248 -0.67393202 -0.19220972 -0.67407 -0.11601 0.056135736
24248350000 -0.060917143 0.1754134 -0.62061805 -0.31133974 -0.62038124 -0.31118795 -0.093896799 0.15258622
24380800000 0.022339221 0.13755322 -0.65361696 0.24951926 -0.65320796 0.24946074 0.0037137149 0.13059583
24513250000 -0.02119037 0.063908711 -0.24789655 0.65862399 -0.2474484 0.65912676 -0.025479235 0.037644677
24645700000 -0.089404397 0.12081087 0.32453915 0.61571741 0.32510126 0.61552572 -0.11569354 0.080240175
24778150000 -0.023907995 0.19214071 0.66672289 0.17624611 0.66682351 0.17617069 -0.067875326 0.17364311
24910600000 0.049202763 0.1308589 0.58562106 -0.3762812 0.58590811 -0.37638152 0.024867574 0.12851232
25043050000 -0.014864442 0.066910662 0.10565241 -0.69278288 0.10536879 -0.69267851 -0.026195344 0.043368097
25175500000 -0.069451973 0.14189248 -0.4424412 -0.5319953 -0.44235525 -0.53231794 -0.10415801 0.10833753
25307950000 0.012158099 0.19855639 -0.68513489 -0.035127304 -0.68494636 -0.035335984 -0.034060109 0.18897581
25440400000 0.069818161 0.1202984 -0.49391747 0.48712331 -0.4937095 0.48696613 0.046170238 0.12159953
25572850000 -0.0073173731 0.070949942 0.039465386 0.69671148 0.03953357 0.6970908 -0.023715911 0.048893001
25705300000 -0.043863788 0.15649763 0.54028893 0.42763981 0.5403949 0.42756659 -0.087458819 0.12889928
25837750000 0.047110721 0.1923655 0.67533374 -0.10596582 0.6753186 -0.10636851 -0.002253521 0.19259208
25970200000 0.084819548 0.10280614 0.38158602 -0.57569832 0.38196164 -0.57611787 0.060610808 0.11031082
26102650000 -0.0023204288 0.075652547 -0.18153016 -0.67141819 -0.18141174 -0.67114598 -0.023455331 0.056896254
26235100000 -0.016133334 0.16822037 -0.61394423 -0.30674154 -0.61363471 -0.30706504 -0.064555652 0.15024661
26367550000 0.080807783 0.17984776 -0.63785475 0.240649 -0.63778001 0.24065046 0.033125825 0.19042452
26500000000 0.09358725 0.085919023 -0.25483111 0.64064735 -0.25485149 0.64082843 0.073062912 0.096553318
