!Keysight Technologies,N5222A,MY51421047,A.10.65.16
!Date: Friday, September 25, 2026 13:57:24
!Correction: S11(Full 2 Port(1,2)) 
!S21(Full 2 Port(1,2)) 
!S12(Full 2 Port(1,2)) 
!S22(Full 2 Port(1,2)) 
!S2P File: Measurements: S11, S21, S12, S22:
# Hz S  RI   R 50
10000000 0.0017520051 -0.00084018073 0.99600554 -0.060711302 0.99589437 -0.059992589 0.0029314251 -0.00033948259
18278125 0.083675496 0.0070931832 0.89972377 -0.48525542 0.90114278 -0.48266754 0.083532833 0.030883564
26556250 0.086898759 -0.081610419 0.59532017 -0.82399857 0.59868956 -0.82163721 0.10628537 -0.083247982
34834375 -0.00526335 -0.13167565 0.17677718 -1.0314105 0.18157762 -1.0320493 0.013503101 -0.15838386
43112500 -0.092730343 -0.069080502 -0.28029537 -0.9873907 -0.27705401 -0.98944747 -0.10387544 -0.11205187
51390625 -0.081781752 0.031536285 -0.6400525 -0.74290991 -0.63612914 -0.74595481 -0.1275332 0.0082551725
59668750 0.0040020943 0.085310809 -0.90946257 -0.41920474 -0.90741169 -0.4229477 -0.056826375 0.1074684
67946875 0.092292376 0.038085725 -1.0251129 0.0047556404 -1.0269343 8.6299238e-005 0.073489949 0.10692967
76225000 0.094401002 -0.061846904 -0.92907923 0.44991809 -0.93349016 0.44950753 0.14716533 -0.0070589087
84503125 0.013447219 -0.11476994 -0.6408487 0.81063414 -0.64205712 0.81382912 0.094837524 -0.13669474
92781250 -0.066753179 -0.076603606 -0.22478434 0.97987473 -0.22129384 0.98112321 -0.041123901 -0.16605473
101059375 -0.081798792 -0.00029766583 0.21119535 0.97818798 0.21410029 0.97566396 -0.14981431 -0.082455859
109337500 -0.036526039 0.046667434 0.59870619 0.79319835 0.59828711 0.79064542 -0.15253736 0.052611172
117615625 0.013768895 0.039086338 0.87623197 0.46492249 0.87488294 0.46374553 -0.054147184 0.13901372
125893750 0.029230203 0.0065254364 0.99602669 0.045606878 0.99432671 0.045102514 0.071454838 0.12226213
134171875 0.016008025 -0.010426181 0.91302878 -0.38336751 0.91096467 -0.38219488 0.13394246 0.019343393
142450000 0.0082958788 -0.0047757127 0.66266483 -0.73883736 0.66251862 -0.73891824 0.0042008189 0.00233296
150728125 0.01189494 -0.009343693 0.28299361 -0.94748062 0.28311679 -0.94742805 0.0085886549 0.0015794248
159006250 0.0083434358 -0.021357708 -0.1469488 -0.97388369 -0.14691228 -0.97357482 0.014677227 -0.006669906
167284375 -0.0075231981 -0.027225055 -0.54498863 -0.81553859 -0.54458445 -0.81522077 0.011701549 -0.021071222
175562500 -0.023681259 -0.016745461 -0.83326185 -0.50194097 -0.8337428 -0.50214291 -0.0038060688 -0.029393019
183840625 -0.023582105 0.0024976511 -0.97213948 -0.097038351 -0.97248548 -0.096792385 -0.021219822 -0.022112813
192118750 -0.0082086632 0.011208096 -0.9208951 0.32836592 -0.92075562 0.32899651 -0.025387965 -0.0034868752
200396875 0.0045096953 0.0013798128 -0.69299912 0.69171828 -0.69233018 0.69205958 -0.012220855 0.009647361
208675000 -0.00067540753 -0.013596371 -0.33095393 0.92055207 -0.32994485 0.92022794 0.0053449031 0.0045768279
216953125 -0.018660339 -0.014170093 0.094291732 0.97325563 0.094548523 0.97189832 0.0093517704 -0.014623994
225231250 -0.02888825 0.0049036732 0.5007509 0.83919096 0.49991104 0.83842909 -0.0075111166 -0.029345931
233509375 -0.012846005 0.02695702 0.80875355 0.54427606 0.80778873 0.543567 -0.032980897 -0.021290526
241787500 0.015481108 0.014455769 0.96115351 0.14738403 0.96004617 0.14694934 -0.038940351 0.009792543
250065625 0.0087784622 -0.0055519505 0.93037617 -0.2749767 0.92885584 -0.27538386 -0.013810711 0.023180619
258343750 0.0010261235 -0.0080042742 0.72771895 -0.65263903 0.72674537 -0.65198416 -0.0015533986 0.017825568
266621875 -0.0039639226 -0.0081014698 0.37959698 -0.90700197 0.37947655 -0.90557778 0.0086700357 0.012642439
274900000 -0.0034316056 -0.014143172 -0.045167502 -0.98770988 -0.045550484 -0.98851562 0.00050375314 0.0060023204
283178125 -0.0063017341 -0.015425218 -0.46458599 -0.87534076 -0.46507853 -0.87576532 0.0053574257 0.0018461325
291456250 -0.014210735 -0.01469407 -0.79485947 -0.59383982 -0.79479384 -0.59323442 0.0056748516 -0.0045098225
299734375 -0.021963175 -0.0048668706 -0.97170579 -0.19725759 -0.97148722 -0.19659865 0.0015484624 -0.0092628812
308012500 -0.019818431 0.01140262 -0.96060348 0.23623063 -0.9613784 0.23567028 -0.004026595 -0.0093353996
316290625 -0.003957714 0.022015022 -0.7676751 0.62343699 -0.76830977 0.62330037 -0.0068277977 -0.0052999337
324568750 0.015803128 0.015822601 -0.42816815 0.8935653 -0.42837337 0.89404374 -0.0041664136 -0.0011404017
332846875 0.021862086 -0.0048741126 -0.0050504031 0.99172837 -0.0049118605 0.99146765 0.0035768102 -0.0017727979
341125000 0.0061638979 -0.01659886 0.41924936 0.89895284 0.41851476 0.89793849 0.0097796349 -0.01414083
349403125 -0.0029449151 -0.0051518641 0.7623235 0.63344914 0.76066083 0.63311648 -0.0023133866 -0.033455234
357681250 0.0077690771 -0.00038728619 0.95716262 0.24711955 0.95558584 0.24807882 -0.030484721 -0.031498399
365959375 0.014188157 -0.011663648 0.96773118 -0.18384787 0.96727866 -0.18196447 -0.044435941 -0.0079645449
374237500 0.0065500629 -0.024203356 0.7936697 -0.57600939 0.79440778 -0.57389235 -0.038062457 0.013335734
382515625 -0.0080288919 -0.026598724 0.47220582 -0.86072171 0.47331223 -0.85957956 -0.024811678 0.022376565
390793750 -0.019758407 -0.018456297 0.059113264 -0.98135185 0.060125809 -0.98061985 -0.014392994 0.02287963
399071875 -0.023132684 -0.0068607391 -0.36600518 -0.91308177 -0.36485717 -0.91234648 -0.0087512387 0.022543211
407350000 -0.021295352 0.0020028756 -0.72163826 -0.67096835 -0.72266519 -0.67103702 -0.0015847338 0.016871877
415628125 -0.017281014 0.0096762506 -0.93847948 -0.29745153 -0.93834049 -0.29875046 0.0071156383 0.016569531
423906250 -0.011255306 0.016149623 -0.9741438 0.13087495 -0.9743576 0.12967485 0.0171622 0.010768272
432184375 -0.001319496 0.020873098 -0.82351011 0.53218764 -0.82408929 0.53111243 0.023346541 -0.0011317426
440462500 0.012172638 0.020131219 -0.5176053 0.83133477 -0.5179804 0.83034396 0.021862559 -0.014451041
448740625 0.024952849 0.010766813 -0.11240941 0.97268027 -0.11361163 0.97187233 0.014325492 -0.024239268
457018750 0.030411221 -0.0063353507 0.31368321 0.92668164 0.31191966 0.92677957 0.0052986429 -0.028329991
465296875 0.023364352 -0.02341279 0.67764091 0.70458531 0.67683399 0.70428705 -0.0015477444 -0.029490767
473575000 0.0087248534 -0.030274995 0.91213822 0.34814826 0.91062784 0.34787583 -0.0073095378 -0.032005791
481853125 -0.00095390907 -0.028037364 0.97166598 -0.072815508 0.9701727 -0.07295841 -0.017687267 -0.036009114
490131250 -0.005692027 -0.029442877 0.84640586 -0.47847629 0.84490067 -0.47699904 -0.036308225 -0.032982856
498409375 -0.018572692 -0.032422207 0.56077319 -0.79070562 0.56060189 -0.7880128 -0.051715042 -0.013545516
506687500 -0.036382433 -0.022872707 0.16681388 -0.95741296 0.16815402 -0.95578057 -0.049377993 0.013127903
514965625 -0.043374769 -0.0006839736 -0.26011652 -0.93924826 -0.25895789 -0.93901485 -0.032833878 0.029370667
523243750 -0.034472696 0.019739376 -0.63903511 -0.73998463 -0.63803428 -0.73943549 -0.015620462 0.033116098
531521875 -0.018482868 0.029183878 -0.89662021 -0.39644122 -0.89599919 -0.39511663 -0.0028753018 0.032271456
539800000 -0.0044618337 0.030714868 -0.98348868 0.026317514 -0.98290235 0.026387835 0.009619494 0.030994849
548078125 0.0080547463 0.028663004 -0.87755793 0.44456083 -0.87789935 0.44458631 0.025348127 0.026152175
556356250 0.021081742 0.024801645 -0.60424137 0.77713692 -0.60347801 0.77735293 0.040966328 0.010984334
564634375 0.036450103 0.013664364 -0.21358491 0.96102178 -0.21410847 0.96042001 0.046674918 -0.014190193
572912500 0.04625129 -0.0094714398 0.21733491 0.95996153 0.21623312 0.95983607 0.035951167 -0.039594952
581190625 0.038546138 -0.039716963 0.60587144 0.77541834 0.60479641 0.77558523 0.012782323 -0.053003144
589468750 0.0096266847 -0.059749447 0.87838101 0.44313559 0.87814087 0.44312239 -0.010284177 -0.050246663
597746875 -0.02531606 -0.054378357 0.98306829 0.026275618 0.98260063 0.026221035 -0.022491923 -0.03847941
606025000 -0.043276072 -0.03013269 0.89945269 -0.39533576 0.89903331 -0.39517739 -0.025042595 -0.030836852
614303125 -0.041197866 -0.010228301 0.64457774 -0.73986655 0.6434285 -0.73950702 -0.030501727 -0.030578706
622581250 -0.037352443 -0.0033879238 0.26695779 -0.94325066 0.26660055 -0.94095266 -0.045687895 -0.025623236
630859375 -0.041789751 0.0034685466 -0.16160707 -0.96692824 -0.1606088 -0.96478915 -0.058757216 -0.0044200798
639137500 -0.044332333 0.021115752 -0.55940336 -0.80516475 -0.55767512 -0.80464524 -0.054097559 0.025090616
647415625 -0.031962968 0.041942548 -0.84985274 -0.48897859 -0.84843946 -0.48957619 -0.031307984 0.044468548
655693750 -0.0072300564 0.05039455 -0.97777736 -0.079556152 -0.97681731 -0.079696767 -0.0053145993 0.046410728
663971875 0.01532107 0.042676609 -0.91775078 0.34584618 -0.91711253 0.34510088 0.012641411 0.038087856
672250000 0.032317422 0.017679358 -0.68231159 0.70507115 -0.68273592 0.70462549 0.026055425 0.028920278
680528125 0.037910234 0.0020425522 -0.31582636 0.92868453 -0.31537819 0.92863595 0.037122671 0.017651368
688806250 0.040160649 -0.014151547 0.11114039 0.97402328 0.11082814 0.97319323 0.048042532 0.00014040964
697084375 0.036583815 -0.034901258 0.51618701 0.83221537 0.51437992 0.83223784 0.049953371 -0.02717888
705362500 0.018637337 -0.055909291 0.82084858 0.53165537 0.81885982 0.53296167 0.032870017 -0.055515647
713640625 -0.013914352 -0.062889054 0.96817309 0.1314505 0.96755153 0.13296348 -0.0010054839 -0.068007156
721918750 -0.045751296 -0.044932641 0.93149626 -0.29378051 0.93188453 -0.29247448 -0.034587227 -0.05578769
730196875 -0.056017913 -0.010202047 0.71711898 -0.66209692 0.7173937 -0.66212827 -0.049529705 -0.027307957
738475000 -0.039640635 0.017689573 0.36580443 -0.90474421 0.36541089 -0.9037084 -0.042021081 -0.0032611866
746753125 -0.015112616 0.021646691 -0.054795999 -0.97306389 -0.055269632 -0.97113591 -0.027282082 0.0029246802
755031250 -0.005518375 0.010236357 -0.46516767 -0.85633671 -0.46516526 -0.85417771 -0.023186196 -0.0030833175
763309375 -0.011598648 0.0064215455 -0.78717762 -0.57469916 -0.78597021 -0.57368422 -0.03283786 -0.0028521742
771587500 -0.012672708 0.018139195 -0.95791465 -0.18263441 -0.95604545 -0.18256879 -0.040109642 0.013450132
779865625 0.0042210813 0.028032169 -0.94462436 0.2452601 -0.94254369 0.24288459 -0.030151559 0.035159934
788143750 0.026255751 0.018401688 -0.75034291 0.62545121 -0.74803889 0.62305176 -0.0057922131 0.044278175
796421875 0.033025011 -0.0051803761 -0.41188467 0.88627976 -0.41029459 0.88255244 0.016778961 0.035811853
804700000 0.024038609 -0.0242637 0.0058443039 0.97903681 0.0058008507 0.97953397 0.028511224 0.018073589
812978125 0.0097903069 -0.030230502 0.42331007 0.88304538 0.42322531 0.88308984 0.031963564 0.0048857029
821256250 0.0014244262 -0.028664684 0.75945508 0.61778474 0.75924307 0.61669248 0.03407906 -0.0078873951
829534375 -0.0033646498 -0.03058655 0.95060164 0.23389202 0.94934601 0.23348862 0.032536022 -0.024988631
837812500 -0.015773011 -0.034622215 0.95796704 -0.19437695 0.95755035 -0.19328438 0.019191727 -0.043351479
846090625 -0.036607932 -0.025942791 0.78262442 -0.58373415 0.7834661 -0.58256263 -0.0062554283 -0.050628878
854368750 -0.047578011 0.002664933 0.45840836 -0.8606922 0.46085405 -0.86075354 -0.030933229 -0.038246538
862646875 -0.030646421 0.034728106 0.049206045 -0.97366256 0.048578963 -0.97496694 -0.037882801 -0.014069001
870925000 0.0076575708 0.042895425 -0.37075943 -0.90141112 -0.3713887 -0.90149724 -0.025412062 0.0016750102
879203125 0.037513431 0.018485766 -0.72004962 -0.65654773 -0.72107238 -0.65586776 -0.011286426 -0.0041563604
887481250 0.036698695 -0.016225822 -0.93181092 -0.28484598 -0.93210524 -0.28516108 -0.017270299 -0.020328293
895759375 0.013870064 -0.032482564 -0.96506131 0.14006819 -0.96496004 0.14077042 -0.043730717 -0.020623235
904037500 -0.0039900141 -0.026128398 -0.81356847 0.53934515 -0.81255519 0.5390963 -0.064915918 0.0093432432
912315625 -0.00521527 -0.017010594 -0.50541824 0.83702278 -0.50428295 0.83455551 -0.053461421 0.052177109
920593750 -0.0028285489 -0.019546594 -0.099332601 0.97338015 -0.098820768 0.97074759 -0.010520609 0.073375754
928871875 -0.011552983 -0.025066528 0.32877126 0.92096603 0.3231056 0.92073178 0.032376524 0.055721983
937150000 -0.02604063 -0.017833555 0.68876052 0.69402266 0.68860757 0.6944133 0.019414596 0.02298245
945428125 -0.029342487 3.9406547e-007 0.91871303 0.33306301 0.91885763 0.33375868 0.021754326 0.010588867
953706250 -0.017606754 0.01387436 0.97284144 -0.090916343 0.97296393 -0.090744756 0.022641022 0.007700948
961984375 -0.0027927028 0.013564575 0.84000915 -0.49786305 0.84107703 -0.49667203 0.033025883 0.0047192485
970262500 0.0019612727 0.0068282271 0.54638088 -0.80835915 0.54847997 -0.80716765 0.04677159 -0.012682199
978540625 0.0010438218 0.0079166209 0.14868794 -0.96303058 0.15148029 -0.96238011 0.045318391 -0.044056423
986818750 0.010409354 0.015687564 -0.27507997 -0.93269098 -0.27309242 -0.93389922 0.019514685 -0.071024783
995096875 0.033959206 0.010865639 -0.6439485 -0.72635317 -0.64444757 -0.72716194 -0.019627152 -0.074854985
1003375000 0.051529866 -0.01976466 -0.89072078 -0.38265583 -0.8933422 -0.38265264 -0.050593946 -0.054325316
1011653125 0.038467281 -0.061899327 -0.96884924 0.034693934 -0.97228473 0.035985067 -0.06076717 -0.024544576
1019931250 -0.0056263739 -0.083556518 -0.86168045 0.44492671 -0.8640092 0.44909433 -0.05537831 -0.0024851712
1028209375 -0.051689841 -0.067359261 -0.59045196 0.77057022 -0.58917838 0.77574867 -0.048228443 0.0095562525
1036487500 -0.070683114 -0.028690683 -0.20559706 0.95034802 -0.20068847 0.95331985 -0.04453472 0.020684212
1044765625 -0.061425023 0.0021748573 0.22127882 0.94849658 0.2256072 0.9481293 -0.037407797 0.036772821
1053043750 -0.047398422 0.01285473 0.60718077 0.76304173 0.60882276 0.76074356 -0.018644819 0.051406793
1061321875 -0.044237118 0.018362733 0.87530297 0.42938659 0.87562096 0.42854235 0.0074805082 0.054043919
1069600000 -0.025239609 0.043010559 0.97498703 0.013864708 0.97538626 0.013295679 0.030155234 0.043071058
1077878125 0.00060011609 0.055499319 0.88706809 -0.40367317 0.88786745 -0.40442005 0.045931846 0.027029473
1086156250 0.034241136 0.050288629 0.62906873 -0.74322963 0.62928998 -0.74566221 0.056446519 0.0087389303
1094434375 0.058907788 0.024317898 0.25140649 -0.94005537 0.24996446 -0.94244927 0.064599052 -0.014121003
1102712500 0.062954925 -0.0089352606 -0.17359501 -0.95723706 -0.17660864 -0.95840281 0.064499095 -0.046861738
1110990625 0.051159617 -0.033999313 -0.56558055 -0.79149234 -0.5682103 -0.79064173 0.043846671 -0.083535135
1119268750 0.036355976 -0.04898056 -0.84989923 -0.47367528 -0.85042936 -0.47299683 -0.0012817634 -0.10564934
1127546875 0.021179998 -0.062165521 -0.97095197 -0.065153822 -0.97105014 -0.065406427 -0.054662053 -0.095767602
1135825000 -0.0025313064 -0.074658237 -0.90514863 0.35566518 -0.90646356 0.35497361 -0.090526678 -0.055888232
1144103125 -0.037898708 -0.074509591 -0.66633135 0.70727062 -0.66869009 0.70801193 -0.094284974 -0.0080242809
1152381250 -0.071371779 -0.050921079 -0.30066961 0.92425418 -0.30264774 0.92630571 -0.074891612 0.024330389
1160659375 -0.0841925 -0.011733242 0.122534 0.96477532 0.12171225 0.96682984 -0.053226881 0.036560457
1168937500 -0.073538199 0.02292281 0.52287263 0.82069206 0.52358288 0.82144409 -0.040996242 0.042206284
1177215625 -0.054293424 0.041981723 0.82366097 0.51845151 0.82406068 0.51829284 -0.030783618 0.053991802
1185493750 -0.038810339 0.054137476 0.96656644 0.11684469 0.96490514 0.117023 -0.0085690077 0.068087958
1193771875 -0.019535601 0.070429042 0.922616 -0.30653068 0.92171925 -0.30470064 0.02607937 0.068595253
1202050000 0.045287725 0.0567801 0.70484251 -0.67055762 0.70458269 -0.67045045 0.062667936 0.04372827
1210328125 0.074851356 0.034434412 0.35086745 -0.90573126 0.35164994 -0.90623766 0.079604797 0.006454784
1218606250 0.090048961 -0.0079271272 -0.068111174 -0.96756285 -0.067714371 -0.96880376 0.072803356 -0.031339269
1226884375 0.07503923 -0.053758845 -0.47287002 -0.84602135 -0.4734112 -0.84715056 0.052350324 -0.055826388
1235162500 0.036333226 -0.078469075 -0.78754246 -0.56481165 -0.78869349 -0.56428832 0.031025665 -0.069493532
1243440625 -0.0012585593 -0.074446782 -0.9544571 -0.17582253 -0.953574 -0.17452785 0.0092568584 -0.080731004
1251718750 -0.020870348 -0.058619585 -0.9389835 0.24918531 -0.93600082 0.2491972 -0.021693468 -0.088196486
1259996875 -0.030135572 -0.049334243 -0.74169976 0.62828076 -0.73939037 0.6254676 -0.06132672 -0.079050198
1268275000 -0.046301797 -0.043945599 -0.40013114 0.88488585 -0.40119967 0.88118136 -0.093940087 -0.045365416
1276553125 -0.069570005 -0.024175171 0.01707774 0.97015673 0.013252723 0.96821356 -0.10182572 0.0024837025
1284831250 -0.07931041 0.016655687 0.42953753 0.86923099 0.42492059 0.87032437 -0.082478598 0.043220405
1293109375 -0.058021121 0.060146399 0.75902289 0.60246944 0.75667721 0.60551047 -0.050896578 0.06341432
1301387500 -0.0132085 0.080717385 0.943299 0.2212991 0.94355601 0.22301386 -0.023203781 0.067566745
1309665625 0.030683951 0.070985556 0.94808453 -0.20214209 0.94808829 -0.20232531 -0.0010880333 0.067265622
1317943750 0.05760628 0.04499688 0.7710433 -0.58759159 0.76987481 -0.58777022 0.023405565 0.064630948
1326221875 0.070301354 0.016437642 0.44627821 -0.86061651 0.4451564 -0.85946673 0.05194493 0.050416525
1334500000 0.075114295 -0.014430052 0.036295589 -0.97073287 0.036534123 -0.97095728 0.077771723 0.012140741
1342778125 0.069185652 -0.051819917 -0.38063261 -0.89212656 -0.38133246 -0.89266896 0.077562101 -0.026988689
1351056250 0.03547509 -0.0861485 -0.72396463 -0.64430028 -0.72561997 -0.64508241 0.055209953 -0.059223037
1359334375 -0.018469675 -0.089515433 -0.92913276 -0.2739518 -0.93199354 -0.2740413 0.022351447 -0.070894122
1367612500 -0.058307778 -0.053250313 -0.95812094 0.14781463 -0.96053344 0.15150642 -0.0026187943 -0.065206714
1375890625 -0.05671899 -0.0060714083 -0.80456674 0.54341954 -0.80320913 0.5491153 -0.01517881 -0.057777449
1384168750 -0.026060658 0.012865844 -0.49555126 0.83678806 -0.48958945 0.83911413 -0.02728348 -0.057081643
1392446875 -0.0080455476 -0.0029950626 -0.089309335 0.96961951 -0.083609119 0.96549636 -0.049684871 -0.0538412
1400725000 -0.024770437 -0.018120795 0.3347041 0.91420698 0.33508334 0.9081859 -0.076051109 -0.032458529
1409003125 -0.052223742 0.0022194805 0.69391942 0.68246526 0.68996155 0.67877018 -0.086524993 0.0078516193
1417281250 -0.046941072 0.049495585 0.9176544 0.3187364 0.91473675 0.31939277 -0.068678312 0.048859023
1425559375 0.002226575 0.078442141 0.96488237 -0.10336705 0.96355057 -0.10292529 -0.031247167 0.069336712
1433837500 0.059841458 0.057944752 0.8268885 -0.50455999 0.8258121 -0.50428385 0.0043608998 0.064580701
1442115625 0.082173474 0.0035475953 0.53286016 -0.8078149 0.53169364 -0.80704099 0.02550289 0.048677698
1450393750 0.06175613 -0.04263065 0.13843767 -0.95807493 0.1380012 -0.95607066 0.037120417 0.034281187
1458671875 0.027531471 -0.057660311 -0.28327435 -0.92655599 -0.282648 -0.9245863 0.048595089 0.019755129
1466950000 0.0054535293 -0.055542409 -0.65329099 -0.71907282 -0.65340543 -0.71904296 0.057238758 -0.0033755791
1475228125 -0.011346357 -0.054045536 -0.89671713 -0.37106681 -0.89581543 -0.37241399 0.056982763 -0.028949939
1483506250 -0.035062846 -0.049014542 -0.96845895 0.04655946 -0.96907955 0.042998753 0.038392708 -0.054492768
1491784375 -0.059771977 -0.022899367 -0.8560645 0.45424321 -0.85942507 0.45158103 0.006553561 -0.061253376
1500062500 -0.058365494 0.022690991 -0.5812062 0.77517956 -0.58502716 0.77557921 -0.016246842 -0.045077458
1508340625 -0.018530168 0.055124585 -0.19358173 0.95025653 -0.19509821 0.95098156 -0.015161947 -0.026003696
1516618750 0.032520019 0.043823063 0.23097135 0.94178843 0.23034708 0.9414686 -0.0029721321 -0.027222913
1524896875 0.052131079 -0.00098064169 0.61039847 0.75318021 0.60970366 0.75231785 -0.0069343615 -0.046944574
1533175000 0.029120307 -0.035826385 0.873963 0.42125762 0.87284166 0.41961774 -0.038865265 -0.057667881
1541453125 -0.003117292 -0.032013867 0.97194678 0.0080909114 0.9692058 0.0059202379 -0.077721164 -0.034652915
1549731250 -0.0061354688 -0.007899059 0.88358951 -0.41057912 0.87777221 -0.40996292 -0.090253212 0.016299173
1558009375 0.017595822 -0.0045090476 0.62125576 -0.75060266 0.61694098 -0.74485797 -0.063194796 0.062745981
1566287500 0.028709272 -0.033427361 0.2384913 -0.94304532 0.2398421 -0.935781 -0.016545864 0.077653624
1574565625 0.0025725611 -0.062759005 -0.1865155 -0.95170206 -0.18180728 -0.94857895 0.019556932 0.063173182
1582843750 -0.041380588 -0.057408612 -0.57315803 -0.78037769 -0.56989914 -0.78064644 0.034390666 0.042385995
1591121875 -0.064521499 -0.019844711 -0.85076958 -0.4616262 -0.84891051 -0.46175587 0.04080895 0.030189656
1599400000 -0.048711102 0.015671171 -0.96841377 -0.05475083 -0.9688558 -0.054289304 0.053038247 0.020010293
1607678125 -0.02249011 0.030423947 -0.89809573 0.36442348 -0.89715916 0.36377546 0.068554059 -0.00092752732
1615956250 -0.0093001639 0.027728839 -0.65573817 0.71228331 -0.65635312 0.71010852 0.069591135 -0.036656231
1624234375 -0.0061185244 0.036467835 -0.28793144 0.92351586 -0.29058585 0.9219045 0.045410886 -0.068526462
1632512500 0.01745517 0.056779094 0.13463637 0.95648557 0.1312287 0.9574011 0.0094218748 -0.076700047
1640790625 0.069725215 0.052488498 0.52992624 0.80522281 0.52762079 0.81027853 -0.015514183 -0.064927861
1649068750 0.11344188 -0.0021306411 0.82033235 0.50066936 0.82348281 0.50700057 -0.023210647 -0.054331772
1657346875 0.10200944 -0.08256571 0.95341325 0.1051004 0.96169537 0.10565168 -0.031647466 -0.05720479
1665625000 0.033353433 -0.13233671 0.90891987 -0.30872101 0.91351163 -0.31709522 -0.0584394 -0.059089512
1673903125 -0.045504428 -0.11859416 0.69340968 -0.66788632 0.68756664 -0.67676026 -0.095471971 -0.035104524
1682181250 -0.084226549 -0.064308971 0.34246621 -0.90368265 0.33113554 -0.902619 -0.11269926 0.019065181
1690459375 -0.078404583 -0.017887697 -0.078383401 -0.96537018 -0.083829701 -0.95537108 -0.088711709 0.078043371
1698737500 -0.063384414 -0.00015365188 -0.48547131 -0.83898354 -0.48146209 -0.82952565 -0.033563595 0.10911199
1707015625 -0.064065218 0.010522457 -0.79766452 -0.54920828 -0.79012907 -0.54641432 0.022138812 0.10198052
1715293750 -0.065871961 0.039543249 -0.95518208 -0.1547906 -0.94918388 -0.15679599 0.056734465 0.075089924
1723571875 -0.040441252 0.077164434 -0.92786682 0.2677044 -0.92463398 0.26482585 0.075376928 0.049337126
1731850000 0.018364953 0.090340689 -0.72664905 0.63657421 -0.72654587 0.63659698 0.095296346 0.024744002
1740128125 0.065558285 0.067790441 -0.38673836 0.88456899 -0.38545772 0.88443834 0.10899267 -0.01209181
1748406250 0.086850822 0.027624751 0.026426405 0.96546495 0.028490709 0.96250355 0.10745733 -0.065077111
1756684375 0.087149896 -0.0057496005 0.43725973 0.86179852 0.43444863 0.85579795 0.070817709 -0.11982613
1764962500 0.086330839 -0.031228436 0.76413196 0.59068441 0.75511557 0.58895373 0.0018227977 -0.14488928
1773240625 0.085003287 -0.066721506 0.94138247 0.20613457 0.93338406 0.21387814 -0.068112046 -0.12258685
1781518750 0.060048509 -0.11455801 0.93640804 -0.21440348 0.93912655 -0.20355514 -0.10627188 -0.068111748
1789796875 -0.0031797797 -0.14632633 0.75510889 -0.59047198 0.76436949 -0.58810651 -0.10513125 -0.014950706
1798075000 -0.082631268 -0.12887348 0.43369585 -0.85505038 0.43837956 -0.86109966 -0.086587794 0.014643977
1806353125 -0.13358547 -0.062186792 0.028877405 -0.96088511 0.025366534 -0.96503198 -0.075388744 0.028733388
1814631250 -0.13034442 0.0150695 -0.38512352 -0.88330525 -0.38991401 -0.88146591 -0.072617166 0.049876161
1822909375 -0.090117432 0.063912593 -0.72687954 -0.63410997 -0.72803473 -0.62928313 -0.057118092 0.084330387
1831187500 -0.04777151 0.080160566 -0.92871684 -0.2616896 -0.92578226 -0.25755557 -0.013827223 0.11307451
1839465625 -0.016327696 0.085859992 -0.9509536 0.16066557 -0.94601887 0.16198467 0.046159972 0.11183118
1847743750 0.018715598 0.091584951 -0.79033309 0.5513286 -0.7859996 0.54931462 0.096562847 0.07634832
1856021875 0.066092856 0.081084177 -0.47834808 0.83479661 -0.47680679 0.83128637 0.11959401 0.023195216
1864300000 0.10951714 0.038068738 -0.077218093 0.95919186 -0.077236645 0.95996362 0.11805515 -0.029416932
1872578125 0.1165128 -0.017241465 0.33827999 0.90030712 0.33968872 0.9001984 0.10072132 -0.074994482
1880856250 0.09471143 -0.062336616 0.6904847 0.67017025 0.69034839 0.66819513 0.066632673 -0.11693195
1889134375 0.063007735 -0.086329371 0.91220653 0.31034765 0.90762311 0.30939725 0.0090794843 -0.14452036
1897412500 0.03542475 -0.098888911 0.95621485 -0.11108296 0.9515394 -0.10555706 -0.063350186 -0.13688301
1905690625 0.0048229485 -0.11254501 0.81440729 -0.50895351 0.81545824 -0.49985734 -0.12114482 -0.085448325
1913968750 -0.043184925 -0.11783276 0.51813507 -0.80483615 0.52604783 -0.79934752 -0.13481766 -0.011826497
1922246875 -0.10146584 -0.08983212 0.12713592 -0.94776738 0.13643904 -0.94905823 -0.10333651 0.04574237
1930525000 -0.1362153 -0.021209821 -0.28803754 -0.91237366 -0.28228384 -0.91896552 -0.057188369 0.0636575
1938803125 -0.11799215 0.058649968 -0.65019149 -0.70323324 -0.65077126 -0.71192229 -0.03025833 0.054636624
1947081250 -0.05473844 0.10598037 -0.88856357 -0.35890007 -0.8949163 -0.36349881 -0.026778501 0.051028106
1955359375 0.013697144 0.10325657 -0.95683181 0.054306541 -0.96337992 0.055952456 -0.020746224 0.06846796
1963637500 0.055654299 0.070722327 -0.84370977 0.45739678 -0.84524506 0.46206838 0.012340955 0.088414863
1971915625 0.071964085 0.037424508 -0.56904268 0.7752952 -0.56650412 0.77679569 0.064360768 0.079376258
1980193750 0.080381781 0.010597659 -0.18288888 0.94546729 -0.18201688 0.94437665 0.1027974 0.033514552
1988471875 0.085464627 -0.021139784 0.23873392 0.93340439 0.23816092 0.93278486 0.10310128 -0.026056467
1996750000 0.073946461 -0.059718188 0.61421561 0.74288052 0.61466402 0.74262559 0.071847744 -0.06714502
2005028125 0.037452295 -0.085199006 0.87326449 0.4128361 0.87309027 0.41188613 0.032665607 -0.082169376
2013306250 -0.0035538515 -0.080870546 0.96744031 0.00083715422 0.96563488 -0.00055124552 0.0038961791 -0.078511462
2021584375 -0.024770362 -0.057792019 0.87559229 -0.41423562 0.87316161 -0.41361552 -0.013868267 -0.074076347
2029862500 -0.026460294 -0.041181535 0.61363894 -0.75015408 0.6114077 -0.74729091 -0.035291787 -0.072655827
2038140625 -0.030677808 -0.038588062 0.23303297 -0.94030249 0.23179071 -0.93575197 -0.064883508 -0.0599766
2046418750 -0.050130013 -0.029967817 -0.19177333 -0.94888943 -0.18924069 -0.94314748 -0.087478496 -0.026223576
2054696875 -0.065838918 0.0047324416 -0.57917821 -0.77515817 -0.57183725 -0.77229124 -0.084733978 0.017803488
2062975000 -0.047360245 0.052809201 -0.85408336 -0.45186153 -0.84656423 -0.45595089 -0.057174642 0.048597448
2071253125 0.0081010908 0.074948929 -0.96337026 -0.043163523 -0.96191734 -0.050908137 -0.024130847 0.054998502
2079531250 0.064363874 0.048230514 -0.88804001 0.37036756 -0.89231473 0.36639717 -0.0032779591 0.046503693
2087809375 0.082667574 -0.0088332184 -0.64613998 0.71217686 -0.64950913 0.71292198 0.0060845912 0.040354047
2096087500 0.057687189 -0.055041976 -0.28244469 0.92037177 -0.28240556 0.9215548 0.017199667 0.03992952
2104365625 0.018132383 -0.067801423 0.13762842 0.9546662 0.13826726 0.95445091 0.03630615 0.034164563
2112643750 -0.008436529 -0.058018528 0.53282821 0.80501539 0.53314924 0.80408722 0.052019399 0.01375502
2120921875 -0.022268355 -0.047105785 0.82647347 0.50022656 0.82654214 0.49979934 0.051291563 -0.01240767
2129200000 -0.028632274 -0.032240551 0.96203178 0.098610662 0.96209711 0.09859325 0.037889007 -0.02771445
2137478125 -0.04175891 -0.010599012 0.91215742 -0.32205874 0.91180158 -0.32270882 0.02959585 -0.027794534
2145756250 -0.037200838 0.022886051 0.68685502 -0.68133324 0.68613249 -0.68196255 0.036414765 -0.0328339
2154034375 -0.005834355 0.046119925 0.32951549 -0.90926492 0.32828161 -0.9096961 0.039830741 -0.05923675
2162312500 0.03321569 0.038442302 -0.08997862 -0.96214539 -0.091808729 -0.96199054 0.013550904 -0.094468832
2170590625 0.051599674 0.0076152324 -0.49158961 -0.83249491 -0.49231717 -0.82965446 -0.043067388 -0.10329922
2178868750 0.043015528 -0.017720127 -0.80094242 -0.54381722 -0.79758739 -0.54142129 -0.09599752 -0.065607563
2187146875 0.031176306 -0.02297494 -0.95773351 -0.14829312 -0.95261693 -0.15029269 -0.10683326 -0.0001780367
2195425000 0.034783565 -0.024923921 -0.92777669 0.27660912 -0.92692202 0.27095199 -0.070662208 0.047548059
2203703125 0.041204922 -0.046111688 -0.71753949 0.64619529 -0.72300714 0.6417802 -0.023386115 0.049844861
2211981250 0.021732636 -0.079489201 -0.37256601 0.88784015 -0.37935987 0.89045179 -0.0068169557 0.02435891
2220259375 -0.027691698 -0.09097033 0.039838359 0.96082914 0.03919661 0.96705192 -0.02350962 0.014251595
2228537500 -0.074876785 -0.059962563 0.44516492 0.85369217 0.4497588 0.85603023 -0.036457375 0.040810466
2236815625 -0.085258976 -0.0071131247 0.76880151 0.58305049 0.77156585 0.57923824 -0.010897144 0.078953326
2245093750 -0.061772227 0.028828129 0.94515276 0.19767095 0.94210303 0.19423731 0.047637392 0.086680628
2253371875 -0.03880325 0.036701523 0.93887466 -0.22677855 0.93428183 -0.22385876 0.099482268 0.047447845
2261650000 -0.0097360658 0.083952367 0.75036001 -0.6032154 0.74996591 -0.60348016 0.090389408 0.00051726581
2269928125 0.023164904 0.087128319 0.41950896 -0.86685258 0.42083514 -0.8668139 0.084918708 -0.041152179
2278206250 0.067453735 0.084096104 0.0075109117 -0.96166921 0.0088755982 -0.96359265 0.06664858 -0.069886215
2286484375 0.12035953 0.049440689 -0.40282497 -0.8701067 -0.40465778 -0.87257516 0.046480525 -0.093342565
2294762500 0.14616038 -0.025704097 -0.73225391 -0.61490679 -0.7361176 -0.61467105 0.016081456 -0.11978795
2303040625 0.11254242 -0.10789605 -0.92352968 -0.24671336 -0.92551744 -0.24309622 -0.039239179 -0.13534214
2311318750 0.03285687 -0.14590594 -0.94366348 0.16857411 -0.94157511 0.17269163 -0.10970157 -0.11230619
2319596875 -0.041398078 -0.12311969 -0.78520685 0.55731207 -0.77970147 0.55810529 -0.15797022 -0.041740812
2327875000 -0.07073532 -0.074181341 -0.4719736 0.84338939 -0.46742174 0.83898038 -0.15102969 0.046906121
2336153125 -0.067068614 -0.045287035 -0.06345436 0.96535081 -0.064654671 0.95924073 -0.093845323 0.10801945
2344431250 -0.073182926 -0.041157778 0.35666186 0.89751035 0.3503364 0.89603281 -0.024782637 0.11937015
2352709375 -0.10471768 -0.024628319 0.70519835 0.65718246 0.70070904 0.66182846 0.02142645 0.099192113
2360987500 -0.12930092 0.031748667 0.91641408 0.2921879 0.91795522 0.29752198 0.043538678 0.079941541
2369265625 -0.10477076 0.10721099 0.95139545 -0.12633221 0.95569122 -0.12629159 0.065979131 0.071055174
2377543750 -0.03109077 0.15187415 0.80525428 -0.51851416 0.80571014 -0.52158725 0.10278056 0.05272539
2385821875 0.050336815 0.14100203 0.50769401 -0.81123263 0.504475 -0.81097239 0.13570897 0.0036473551
2394100000 0.11665241 0.085977167 0.11524996 -0.94738263 0.11473737 -0.94774252 0.13465948 -0.067504175
2402378125 0.13944939 0.032811265 -0.30002603 -0.90726513 -0.2985751 -0.90650088 0.089572944 -0.12571968
2410656250 0.14585316 -0.019942151 -0.65872508 -0.69175541 -0.65693057 -0.69352472 0.023027917 -0.14765747
2418934375 0.13649961 -0.079321548 -0.88997447 -0.34379882 -0.89060807 -0.34697646 -0.035552207 -0.1350458
2427212500 0.094369687 -0.14006552 -0.95042813 0.068367049 -0.95425999 0.066449858 -0.075585149 -0.10867872
2435490625 0.015397454 -0.17306796 -0.8307367 0.46577534 -0.83432698 0.46813133 -0.10746019 -0.079527229
2443768750 -0.071771674 -0.15169355 -0.55445373 0.77572769 -0.55315065 0.77993667 -0.13840151 -0.03764382
2452046875 -0.12550685 -0.086454183 -0.17078768 0.93966973 -0.16538493 0.93928742 -0.15224436 0.027480356
2460325000 -0.13101541 -0.016633626 0.24776335 0.92380697 0.24985944 0.91745889 -0.12579089 0.10113687
2468603125 -0.11178215 0.029606204 0.62033224 0.72933728 0.61418474 0.7236287 -0.057605337 0.14956458
2476881250 -0.095856659 0.06118045 0.87309241 0.39293185 0.86431122 0.39571497 0.022756914 0.14867093
2485159375 -0.077264458 0.10324055 0.95586902 -0.01948135 0.95450348 -0.0096940724 0.078621045 0.10871023
2493437500 -0.026428936 0.14979498 0.85216045 -0.4257445 0.86082083 -0.42011967 0.099494703 0.063145116
2501715625 0.061775785 0.1613865 0.58705127 -0.74473584 0.59618419 -0.74999404 0.10673447 0.032886017
2509993750 0.14786324 0.1093927 0.21718366 -0.92066628 0.21597086 -0.93108892 0.12385815 0.0045730341
2518271875 0.181142 0.013098011 -0.1902959 -0.9270702 -0.20058316 -0.93056267 0.14071842 -0.049527839
2526550000 0.14662385 -0.039538559 -0.5730955 -0.76150531 -0.57339776 -0.76145816 0.074335784 -0.13499857
2534828125 0.11089346 -0.089225784 -0.84540653 -0.44583213 -0.8430627 -0.44464448 0.0080385702 -0.15849157
2543106250 0.068940319 -0.11571894 -0.95587122 -0.041052312 -0.95222759 -0.043766197 -0.066403136 -0.14126146
2551384375 0.026849777 -0.13273282 -0.88171148 0.37158981 -0.88180578 0.36536992 -0.11611478 -0.084921204
2559662500 -0.027869122 -0.14005168 -0.63886166 0.7122584 -0.64467007 0.70789701 -0.12105386 -0.019577757
2567940625 -0.093943208 -0.11706036 -0.27407372 0.91716975 -0.28091976 0.91933882 -0.095196977 0.021502066
2576218750 -0.14285021 -0.051291931 0.14411691 0.94606322 0.1424216 0.95299411 -0.072181121 0.033554755
2584496875 -0.1419251 0.035942137 0.53376949 0.79289746 0.53810602 0.7981326 -0.068593197 0.042602718
2592775000 -0.089177363 0.10202415 0.81946766 0.48978803 0.82623816 0.48882785 -0.066263236 0.072266243
2601053125 -0.015862811 0.12063743 0.9501524 0.095378049 0.95228732 0.089061074 -0.035012614 0.11328672
2609331250 0.042474467 0.098913118 0.90211821 -0.31835642 0.89800638 -0.32364666 0.030789549 0.13064584
2617609375 0.073252648 0.062055204 0.68140948 -0.67489189 0.67505312 -0.67410982 0.10082764 0.098995715
2625887500 0.084812477 0.027377427 0.32713202 -0.9030425 0.32465905 -0.89752865 0.13601065 0.029660316
2634165625 0.086608678 -0.0038457429 -0.090937383 -0.95612293 -0.08893922 -0.95189422 0.12304683 -0.040497363
2642443750 0.079399712 -0.034038514 -0.49066898 -0.82509661 -0.48737252 -0.82390511 0.081203125 -0.08211223
2650721875 0.061278798 -0.059603598 -0.7957834 -0.53656751 -0.79353118 -0.53703415 0.037769292 -0.095062405
2659000000 0.0265746 -0.087737769 -0.94844449 -0.14619939 -0.94902617 -0.14619128 0.0032580649 -0.094410703
2667278125 -0.0095644966 -0.077723987 -0.92014742 0.27386028 -0.9198221 0.27370846 -0.02853694 -0.083492927
2675556250 -0.032004423 -0.060315125 -0.71475619 0.64189655 -0.71479088 0.6409111 -0.05372642 -0.061395183
2683834375 -0.049414124 -0.041252259 -0.37344372 0.88538307 -0.37366107 0.88517642 -0.064289577 -0.030996168
2692112500 -0.063965611 -0.01207553 0.042612143 0.9603337 0.040528525 0.96110004 -0.056809589 -0.0051872828
2700390625 -0.060641799 0.029589793 0.4491635 0.84881461 0.44810364 0.85196561 -0.043262951 0.0040192292
2708668750 -0.026609518 0.065654933 0.76775318 0.57450092 0.77017647 0.57797694 -0.042242542 0.0024204773
2716946875 0.026690617 0.069573566 0.9381156 0.19205424 0.94196671 0.19248414 -0.055686094 0.012879987
2725225000 0.06745322 0.035465017 0.93035495 -0.22531469 0.93283987 -0.22801565 -0.059999716 0.047818262
2733503125 0.072483465 -0.012557184 0.74682707 -0.60145152 0.74545777 -0.60321277 -0.02944104 0.088649727
2741781250 0.048580553 -0.044335335 0.41947818 -0.86397958 0.4180187 -0.86327541 0.032117989 0.097855642
2750059375 0.020469451 -0.051619772 0.0093339626 -0.96103036 0.01002336 -0.95942259 0.085552894 0.057282861
2758337500 0.0024888788 -0.048497729 -0.40314373 -0.87288177 -0.40105698 -0.87312329 0.091701657 -0.0073072244
2766615625 -0.01259026 -0.046285287 -0.73743451 -0.6164791 -0.73668718 -0.61829954 0.05138794 -0.047006674
2774893750 -0.033406615 -0.038114492 -0.930273 -0.24185781 -0.93158728 -0.24321467 0.0082326233 -0.036095493
2783171875 -0.050391696 -0.012652397 -0.9446404 0.17910855 -0.94594753 0.18007304 0.0064904774 -0.00092974672
2791450000 -0.038303681 0.02964903 -0.77705443 0.5659759 -0.77709407 0.56542188 0.043779727 -0.036951765
2799728125 -0.010437852 0.052876629 -0.46008551 0.84305495 -0.45988324 0.84241045 0.041843437 -0.06122303
2808006250 0.022146037 0.051512104 -0.056007028 0.95826375 -0.055969905 0.95693809 0.01387482 -0.088957436
2816284375 0.040961094 0.036857609 0.35928953 0.89001799 0.35727772 0.88781822 -0.034306876 -0.091059603
2824562500 0.050824076 0.026577394 0.70553505 0.65011656 0.70112914 0.65010273 -0.072536319 -0.059498042
2832840625 0.068812467 0.017556334 0.91463321 0.28467408 0.91136312 0.28838548 -0.079025656 -0.016861927
2841118750 0.092742667 -0.0123535 0.94582599 -0.13601682 0.94954211 -0.12793361 -0.063911401 0.0082275551
2849396875 0.093134217 -0.069273368 0.79649371 -0.52320004 0.80422246 -0.52315253 -0.053987425 0.013767584
2857675000 0.045073338 -0.12289704 0.49793327 -0.81120509 0.50084978 -0.81803548 -0.060904052 0.022770125
2865953125 -0.035383336 -0.13062838 0.10608589 -0.9460848 0.10109448 -0.95142668 -0.065879583 0.054065149
2874231250 -0.10005973 -0.081375271 -0.30707324 -0.90260607 -0.3138189 -0.90029508 -0.041538127 0.097039737
2882509375 -0.11450598 -0.010021059 -0.66397166 -0.68580937 -0.66526341 -0.67966628 0.015233981 0.11935791
2890787500 -0.090215534 0.04091312 -0.89441955 -0.33640605 -0.89082205 -0.33262125 0.077940047 0.10125673
2899065625 -0.062573344 0.064649098 -0.95304465 0.07953234 -0.94838315 0.078876875 0.11732626 0.052256133
2907343750 -0.043489002 0.087443694 -0.82610065 0.48029253 -0.82389432 0.47712901 0.126498 -0.0014836567
2915621875 -0.0081052994 0.12037236 -0.53908193 0.78581679 -0.54035085 0.78280669 0.11846847 -0.048323076
2923900000 0.071985662 0.1136682 -0.15485916 0.93946099 -0.15475766 0.93998837 0.10057335 -0.094145432
2932178125 0.13088562 0.075711191 0.25837687 0.91351616 0.26086843 0.91471076 0.058501396 -0.13670716
2940456250 0.15688738 0.0018373872 0.6207968 0.71786904 0.62481451 0.71487695 -0.009428734 -0.15906255
2948734375 0.131005 -0.068624809 0.86889642 0.38673034 0.86837274 0.38042673 -0.08796227 -0.14047469
2957012500 0.079460658 -0.099810205 0.95450312 -0.021710413 0.94690657 -0.023690522 -0.14425184 -0.07741306
2965290625 0.043988138 -0.09901724 0.85402757 -0.43052799 0.84885365 -0.42365411 -0.152233 0.0023544987
2973568750 0.030528316 -0.10620148 0.5855844 -0.75569576 0.58963871 -0.74751776 -0.11882642 0.060367864
2981846875 0.00053162896 -0.13594189 0.20383364 -0.93180901 0.21271408 -0.93187165 -0.077935472 0.08245603
2990125000 -0.074168652 -0.14915031 -0.21459572 -0.92593545 -0.21009681 -0.93314224 -0.055314709 0.090533979
2998403125 -0.16248392 -0.09627068 -0.58734906 -0.74262911 -0.5896942 -0.74927562 -0.038909018 0.11366595
3006681250 -0.19744015 0.01801474 -0.84349704 -0.42018554 -0.85007471 -0.42268679 0.0047064233 0.147085
3014959375 -0.14536113 0.12999144 -0.93906528 -0.023409588 -0.94465315 -0.021240667 0.084693283 0.15169771
3023237500 -0.039691385 0.17810144 -0.86108434 0.37472668 -0.86173421 0.38097841 0.16485913 0.096038498
3031515625 0.055798598 0.15556177 -0.62287307 0.70629805 -0.61850065 0.70906442 0.19417301 -0.0049951761
3039793750 0.10937067 0.10331503 -0.26292378 0.90796453 -0.2608647 0.90477461 0.15461963 -0.098543897
3048071875 0.13708557 0.053709436 0.15176669 0.93493372 0.14832671 0.93307114 0.078213625 -0.14106861
3056350000 0.17066291 0.020523017 0.53719181 0.77915275 0.53767788 0.77922994 0.038436938 -0.16704169
3064628125 0.17389759 -0.056840047 0.81605417 0.47530141 0.81975549 0.47548506 -0.026047699 -0.15777573
3072906250 0.12658067 -0.13707253 0.93955576 0.08437109 0.94358999 0.079186022 -0.077795923 -0.13775827
3081184375 0.033790696 -0.17312324 0.88879633 -0.32259354 0.88659829 -0.33032221 -0.13085158 -0.10472931
3089462500 -0.053522564 -0.14150213 0.67013246 -0.6731326 0.66046911 -0.67588502 -0.17642674 -0.039135627
3097740625 -0.087710388 -0.076975361 0.31851161 -0.89940339 0.3095012 -0.89160174 -0.18041447 0.056057252
3106018750 -0.077107497 -0.036782458 -0.10089144 -0.95190561 -0.09915854 -0.93760747 -0.12261413 0.14174557
3114296875 -0.075512305 -0.034082208 -0.50230348 -0.81494057 -0.486792 -0.80758065 -0.025937656 0.17243913
3122575000 -0.11234969 -0.021729831 -0.80156898 -0.51690239 -0.78516722 -0.52744192 0.057531033 0.13966624
3130853125 -0.14839473 0.046627648 -0.94039261 -0.12330021 -0.94095403 -0.14431532 0.09163703 0.079961509
3139131250 -0.11791538 0.1492555 -0.89878476 0.28684655 -0.91712964 0.27606368 0.087320507 0.03859403
3147409375 -0.0086639971 0.2110993 -0.69052172 0.63789368 -0.70887464 0.64716262 0.084106877 0.025626414
3155687500 0.11867386 0.17935719 -0.35726714 0.86950296 -0.35839695 0.88796544 0.10354031 0.010993846
3163965625 0.18701373 0.07532274 0.043383781 0.94125897 0.056812208 0.95071721 0.12359056 -0.035105128
3172243750 0.17191947 -0.030551117 0.44057521 0.83738893 0.4536787 0.83280611 0.10661178 -0.10263909
3180521875 0.11273547 -0.086736873 0.75917649 0.57240289 0.76256692 0.56194705 0.041901182 -0.15019539
3188800000 0.088889144 -0.086455815 0.93432081 0.18834427 0.9342376 0.18778865 -0.042077579 -0.11546932
3197078125 0.051233672 -0.11397616 0.92435545 -0.22950505 0.92624032 -0.22869794 -0.075064957 -0.076179393
3205356250 -0.0042092684 -0.13310187 0.73738527 -0.60200524 0.74062431 -0.60420913 -0.079726547 -0.03389864
3213634375 -0.075505689 -0.10781408 0.40879795 -0.85814798 0.40999833 -0.86378169 -0.078487009 -0.011673073
3221912500 -0.11459411 -0.036684889 0.0064111245 -0.95022893 0.0014093613 -0.95577776 -0.083748363 0.01084953
3230190625 -0.092521705 0.038563106 -0.4001506 -0.86377001 -0.40728566 -0.86424619 -0.082719535 0.049235273
3238468750 -0.032547578 0.067299582 -0.73176557 -0.61265224 -0.73607612 -0.60734099 -0.052703239 0.092635646
3246746875 0.011404728 0.045911212 -0.92666703 -0.2418108 -0.92460859 -0.23635849 0.0064229518 0.11019988
3255025000 0.013107623 0.017659981 -0.94272572 0.18042456 -0.93827289 0.17995258 0.063723058 0.083140925
3263303125 -0.000483707 0.019459452 -0.77375561 0.56794083 -0.7738508 0.56413001 0.083991088 0.029657748
3271581250 0.011203781 0.03950265 -0.45496285 0.84344214 -0.45898816 0.84335726 0.063977979 -0.010206758
3279859375 0.048833258 0.036344174 -0.050851204 0.95558763 -0.052826703 0.95999032 0.036362983 -0.013918161
3288137500 0.073137075 -0.0048869629 0.36075056 0.8864637 0.36405656 0.88941574 0.034438431 0.00033149254
3296415625 0.053844787 -0.053554323 0.70578861 0.64804983 0.7088182 0.64661419 0.055481061 -0.0035630297
3304693750 0.0058199894 -0.068903953 0.91608208 0.28386962 0.91608256 0.28172392 0.065634646 -0.036916163
3312971875 -0.031313956 -0.046156321 0.94931114 -0.13655502 0.94809455 -0.13634874 0.040650535 -0.07310155
3321250000 -0.031154078 -0.0060889414 0.79890269 -0.52857304 0.7985304 -0.5290007 0.012202822 -0.045108993
3329528125 -0.023973331 0.011768389 0.49557659 -0.81920069 0.49627009 -0.81898981 -0.0015484304 -0.042326085
3337806250 -0.019549282 0.024753101 0.097190686 -0.95173591 0.097851954 -0.95253247 -0.0043590968 -0.039978199
3346084375 -0.0093302447 0.046316635 -0.31939539 -0.90053302 -0.31960592 -0.9021194 -0.009276134 -0.051151317
3354362500 0.025251843 0.0652963 -0.67262602 -0.67557204 -0.67377299 -0.67669868 -0.03617999 -0.064846657
3362640625 0.077650189 0.051553313 -0.8939172 -0.32298508 -0.89535636 -0.32343209 -0.081935167 -0.052261304
3370918750 0.11073211 -0.0046142624 -0.94426304 0.086932413 -0.94552618 0.088081717 -0.11440011 -0.00064027502
3379196875 0.093597099 -0.073310129 -0.81804883 0.47983041 -0.81779641 0.4810527 -0.10208666 0.067014694
3387475000 0.035218805 -0.11091473 -0.53720695 0.78358573 -0.53620112 0.78414559 -0.047310222 0.10925721
3395753125 -0.025255283 -0.10241468 -0.15145488 0.94038785 -0.15065646 0.9395355 0.01456473 0.10538567
3404031250 -0.059936851 -0.070188157 0.26697323 0.91604406 0.26638949 0.91510135 0.049159791 0.072339267
3412309375 -0.074747488 -0.040524345 0.63494724 0.71241874 0.63439733 0.7126559 0.054848775 0.044814289
3420587500 -0.088424794 -0.013135848 0.87821823 0.37049502 0.87893879 0.3705056 0.058134045 0.036376979
3428865625 -0.098726004 0.028507302 0.95036691 -0.041875921 0.9514972 -0.043199189 0.078835875 0.027471123
3437143750 -0.083418131 0.083987102 0.83957016 -0.44350627 0.83881372 -0.44513467 0.10483907 -0.0064997589
3445421875 -0.032227751 0.12679663 0.56818134 -0.75859427 0.56755501 -0.75844157 0.10598605 -0.064549744
3453700000 0.039290298 0.13779365 0.19108531 -0.92837393 0.19046392 -0.92861444 0.080877103 -0.12244963
3461978125 0.093686968 0.10960916 -0.22422177 -0.92031854 -0.22458684 -0.9197492 0.016886581 -0.14698455
3470256250 0.12815396 0.071183138 -0.59638226 -0.73497736 -0.59586138 -0.7351473 -0.045676295 -0.13808252
3478534375 0.15637772 0.027548578 -0.85236818 -0.40737969 -0.85252684 -0.40899137 -0.094429798 -0.10976177
3486812500 0.17674085 -0.038194206 -0.94080496 -0.0027525919 -0.94368899 -0.0041280915 -0.13386768 -0.070484184
3495090625 0.15891662 -0.12851298 -0.84739912 0.39693224 -0.8518284 0.39921302 -0.16491616 -0.013483545
3503368750 0.078057759 -0.20674711 -0.59707856 0.71503305 -0.59707701 0.72145057 -0.17064656 0.065246865
3511646875 -0.045554172 -0.22111809 -0.23899432 0.89854532 -0.23287714 0.90263534 -0.13077338 0.14861913
3519925000 -0.15242951 -0.1556976 0.16279238 0.91787255 0.17030321 0.91376793 -0.045918763 0.2015332
3528203125 -0.19445303 -0.0496355 0.53975558 0.76556271 0.54033375 0.75676715 0.05449323 0.20002525
3536481250 -0.17504627 0.042110916 0.82001585 0.46334243 0.81263012 0.45772156 0.13401484 0.14974532
3544759375 -0.13328591 0.098030232 0.94204021 0.064853735 0.93322587 0.067290947 0.17474931 0.078276001
3553037500 -0.093240738 0.1373979 0.87677807 -0.34712294 0.87357199 -0.33989674 0.1853839 0.0084850937
3561315625 -0.04160887 0.17694882 0.64032596 -0.6870963 0.64273071 -0.68101889 0.17888558 -0.058068737
3569593750 0.039340913 0.198358 0.28605187 -0.88999099 0.28997165 -0.88854277 0.15131111 -0.12797265
3577871875 0.13263518 0.17100976 -0.1172635 -0.92518944 -0.11587382 -0.92521745 0.087828949 -0.18986711
3586150000 0.19725235 0.09497872 -0.49899706 -0.79030204 -0.49870974 -0.7901274 -0.0088077178 -0.2153049
3594428125 0.20726117 0.0031961494 -0.78894991 -0.50473958 -0.78581154 -0.50418198 -0.10873589 -0.18424484
3602706250 0.18272957 -0.064462095 -0.93126947 -0.11927865 -0.92666101 -0.12325996 -0.17338642 -0.10665875
3610984375 0.15642281 -0.11534067 -0.89230084 0.29303861 -0.89326781 0.28392148 -0.18644205 -0.019565873
3619262500 0.12079877 -0.17905477 -0.67716193 0.64682573 -0.68809855 0.64171541 -0.16661766 0.046554446
3627540625 0.034483138 -0.24532232 -0.33176014 0.86987209 -0.34355634 0.87722516 -0.14192893 0.093960099
3635818750 -0.10872426 -0.25248992 0.069410481 0.92100394 0.069271669 0.9370572 -0.1144781 0.14501365
3644096875 -0.24412286 -0.15418211 0.44742635 0.80058855 0.46235216 0.80978727 -0.058572166 0.20274292
3652375000 -0.28609756 0.016834289 0.73821527 0.5387845 0.75508821 0.53147191 0.041551631 0.23495816
3660653125 -0.20998666 0.16729854 0.89927596 0.18345131 0.90244371 0.16502683 0.16172312 0.20234787
3668931250 -0.075417452 0.22431116 0.90235114 -0.21342912 0.88857728 -0.22680216 0.2483058 0.098011009
3677209375 0.031769838 0.19529586 0.73415184 -0.58535999 0.71530068 -0.58153784 0.25815165 -0.038363703
3685487500 0.080141783 0.14516048 0.41034454 -0.85337287 0.40428367 -0.83616841 0.19173923 -0.14800233
3693765625 0.10602175 0.1168237 -0.0018561473 -0.94756883 0.0081298975 -0.93472707 0.091685481 -0.19484955
3702043750 0.14767234 0.089527711 -0.40830189 -0.84908485 -0.39457059 -0.85145247 0.003984753 -0.18821117
3710321875 0.189216 0.02573612 -0.72600222 -0.59156191 -0.72262865 -0.60149413 -0.056975413 -0.15952687
3718600000 0.18466198 -0.06269706 -0.91067362 -0.23131174 -0.91054696 -0.23154868 -0.12421793 -0.14232083
3726878125 0.12226679 -0.13411409 -0.92640769 0.17792979 -0.92193723 0.17901786 -0.17334202 -0.074167997
3735156250 0.043618374 -0.1479985 -0.76626903 0.55958056 -0.75730431 0.55416119 -0.18403296 0.013147469
3743434375 -0.0041574459 -0.12708914 -0.45293701 0.8378033 -0.45011538 0.82294667 -0.14658956 0.091319963
3751712500 -0.026993273 -0.11902511 -0.046684247 0.95202011 -0.059288874 0.9381659 -0.080160491 0.12965114
3759990625 -0.07250341 -0.12620205 0.36728427 0.87801695 0.34644163 0.87862378 -0.021667939 0.12597878
3768268750 -0.15267873 -0.093246266 0.70720255 0.63376659 0.6939708 0.64970219 0.008177259 0.10870048
3776546875 -0.20527248 0.015769152 0.90637529 0.26922351 0.91050321 0.28654987 0.025761239 0.10655659
3784825000 -0.15909581 0.1511084 0.93022728 -0.14070602 0.94305539 -0.13571173 0.062623061 0.11329953
3793103125 -0.022975601 0.21613054 0.78088272 -0.51801252 0.78841907 -0.52448308 0.12367716 0.092425555
3801381250 0.11178032 0.16560811 0.49142531 -0.79742604 0.48919612 -0.80453122 0.17188115 0.020589897
3809659375 0.16017941 0.050620429 0.11020657 -0.93499911 0.10377044 -0.9339993 0.16180333 -0.079305224
3817937500 0.12100787 -0.036036965 -0.30056068 -0.90020263 -0.30222979 -0.89283943 0.085050881 -0.15137573
3826215625 0.065157086 -0.054474454 -0.66271418 -0.68789005 -0.6574055 -0.68206882 -0.015003496 -0.15333617
3834493750 0.045996688 -0.044901501 -0.89815372 -0.33414111 -0.88921255 -0.3350462 -0.07953766 -0.095214218
3842771875 0.045440231 -0.057532597 -0.95293987 0.086142346 -0.94848132 0.079447031 -0.084103107 -0.029322444
3851050000 0.022414252 -0.066927828 -0.82349133 0.48274821 -0.82355595 0.4825151 -0.062902823 -0.031129478
3859328125 -0.03162257 -0.062584996 -0.53932709 0.78652388 -0.53689873 0.78771764 -0.065303259 -0.01890327
3867606250 -0.063145109 -0.0071052811 -0.15275258 0.94281894 -0.14768997 0.94091886 -0.07525222 0.0027677701
3875884375 -0.03094239 0.051176377 0.26589185 0.91942036 0.26916724 0.91234916 -0.069805793 0.038996141
3884162500 0.034522869 0.05127342 0.63535202 0.71738958 0.63242376 0.70777285 -0.03647415 0.066197075
3892440625 0.062677652 -0.0046233442 0.88244396 0.37564239 0.87260306 0.36959535 0.005088659 0.060270321
3900718750 0.025602179 -0.050066095 0.95901442 -0.039127693 0.94658208 -0.037293538 0.021245547 0.028629171
3908996875 -0.0265483 -0.033415262 0.84971887 -0.44649342 0.84124714 -0.43847951 0.0021147346 0.0068130745
3917275000 -0.026710453 0.019045873 0.57657915 -0.76865542 0.5726707 -0.75751555 -0.023791458 0.022156879
3925553125 0.025421286 0.034962468 0.18952906 -0.94293427 0.19171785 -0.92999125 -0.017994387 0.061737489
3933831250 0.062525809 -0.014021439 -0.23549633 -0.93141305 -0.22520961 -0.92081612 0.027842436 0.085234381
3942109375 0.030900192 -0.077069908 -0.61212134 -0.73585969 -0.59626722 -0.73471415 0.08230453 0.06457819
3950387500 -0.046383779 -0.084470436 -0.86347628 -0.39993334 -0.85198575 -0.40979847 0.10781007 0.011972261
3958665625 -0.099784598 -0.02563821 -0.94618899 0.0056732609 -0.94589472 -0.0067464123 0.09517128 -0.038015608
3966943750 -0.091604136 0.048005845 -0.85271913 0.40456277 -0.85893619 0.39911845 0.066949524 -0.064496562
3975221875 -0.044882484 0.088233136 -0.60119092 0.72869241 -0.60498595 0.72974545 0.044937819 -0.076359667
3983500000 0.0019415352 0.10847818 -0.23235694 0.91925281 -0.23242167 0.91939378 0.038222682 -0.1120654
3991778125 0.040849291 0.11382555 0.18342678 0.93028402 0.18274339 0.92784613 -0.015523352 -0.13223946
4000056250 0.096020669 0.11020979 0.56175894 0.76237708 0.55891085 0.76279205 -0.082762636 -0.11925485
4008334375 0.16096956 0.065481998 0.83037782 0.45047191 0.82915568 0.45309439 -0.13524376 -0.066988729
4016612500 0.19144969 -0.029821094 0.94226521 0.055058461 0.94440275 0.056827128 -0.14889362 0.0045145601
4024890625 0.14840245 -0.13284209 0.87712121 -0.3521671 0.87924296 -0.35516489 -0.12538473 0.063148759
4033168750 0.049805749 -0.18126 0.64438319 -0.69412702 0.63933557 -0.70002764 -0.090377666 0.095991798
4041446875 -0.041792173 -0.15867564 0.28758183 -0.90412831 0.27387068 -0.90475637 -0.062072754 0.11788179
4049725000 -0.085517026 -0.10778327 -0.1278379 -0.94160706 -0.14114079 -0.93060708 -0.030125815 0.14784658
4058003125 -0.099708177 -0.075227685 -0.52106017 -0.79607934 -0.52391255 -0.77591193 0.03087368 0.17723821
4066281250 -0.12831776 -0.0572333 -0.81352431 -0.49290931 -0.80075389 -0.47306246 0.12340412 0.17007025
4074559375 -0.17692356 -0.009500307 -0.94335145 -0.092940599 -0.91891962 -0.085602611 0.21069613 0.10005609
4082837500 -0.19828759 0.089407913 -0.88552016 0.32063872 -0.86181927 0.30871353 0.24425603 -0.018124675
4091115625 -0.14618555 0.20287296 -0.6578396 0.66308337 -0.6503582 0.63811618 0.20434794 -0.13478293
4099393750 -0.026954966 0.2693707 -0.31194088 0.87295073 -0.3230525 0.85251099 0.1133305 -0.20624234
4107671875 0.10965239 0.25609291 0.085880473 0.91779935 0.067389242 0.91320479 0.013092459 -0.22167723
4115950000 0.17783321 0.15971753 0.4641622 0.80113924 0.46456906 0.80167985 -0.064925797 -0.22943968
4124228125 0.23003235 0.080414876 0.76118487 0.52546012 0.76079828 0.52436215 -0.15706134 -0.18447906
4132506250 0.25405383 -0.017033651 0.90912712 0.14937875 0.90826005 0.15028705 -0.22940268 -0.10373452
4140784375 0.23485956 -0.13013336 0.88164359 -0.24894293 0.88347918 -0.2475726 -0.26217246 0.0094964886
4149062500 0.15415043 -0.23234329 0.69258618 -0.59510344 0.69572151 -0.59753585 -0.23467982 0.13200232
4157340625 0.022657292 -0.27877432 0.37946483 -0.83152843 0.37784386 -0.83695984 -0.14778461 0.22405519
4165618750 -0.11127269 -0.24549758 -0.007403417 -0.91905063 -0.013823105 -0.92027795 -0.03254611 0.25677505
4173896875 -0.19812863 -0.15553007 -0.40091926 -0.83293992 -0.4049938 -0.82863212 0.069951408 0.23371722
4182175000 -0.22762559 -0.054644085 -0.72253895 -0.58188754 -0.7220735 -0.57776922 0.14137299 0.18303177
4190453125 -0.22384648 0.03258384 -0.90254825 -0.21422915 -0.90157259 -0.21282662 0.19148152 0.12502173
4198731250 -0.20328468 0.11439233 -0.90458459 0.19342248 -0.90530062 0.19498874 0.23256473 0.054515727
4207009375 -0.15268083 0.1994476 -0.73324931 0.55955237 -0.73177475 0.56230199 0.25252751 -0.042512104
4215287500 -0.055221759 0.26402879 -0.42457846 0.81548256 -0.42083463 0.81666744 0.22190721 -0.15771644
4223565625 0.072819158 0.2707051 -0.038561217 0.91723335 -0.035924707 0.91528773 0.12625526 -0.25088838
4231843750 0.18559727 0.20884213 0.35420042 0.84714717 0.35381779 0.84584695 -0.0096920449 -0.27950266
4240121875 0.24858966 0.10808238 0.68183947 0.61774516 0.68075657 0.61839253 -0.13609536 -0.2322586
4248400000 0.26257393 0.0035842399 0.88125116 0.26798654 0.88125992 0.2679731 -0.21454205 -0.13869371
4256678125 0.24578334 -0.094935812 0.9124372 -0.1364163 0.91373354 -0.13517173 -0.24224024 -0.037197031
4264956250 0.19636852 -0.19466142 0.76429707 -0.5138635 0.76854634 -0.51379567 -0.23385774 0.057638589
4273234375 0.090942085 -0.27795893 0.4700624 -0.78632158 0.47495145 -0.79184312 -0.19694534 0.14576197
4281512500 -0.063534841 -0.29321069 0.094906583 -0.90733856 0.092697501 -0.91733879 -0.12308371 0.22177893
4289790625 -0.20510226 -0.20738937 -0.29269624 -0.86474293 -0.3039802 -0.86956185 -0.011431406 0.2593472
4298068750 -0.25866866 -0.055571657 -0.63282537 -0.66825974 -0.64331132 -0.66017818 0.11051994 0.23231275
4306346875 -0.20748027 0.076372981 -0.86704773 -0.34166753 -0.86557817 -0.32884294 0.1970586 0.14425182
4314625000 -0.11219667 0.12549631 -0.94165361 0.066600665 -0.93015414 0.069619864 0.21923956 0.033982966
4322903125 -0.051591113 0.11137867 -0.82362962 0.47394988 -0.81778461 0.46487445 0.18762223 -0.053746808
4331181250 -0.038825445 0.10459562 -0.53376442 0.7847476 -0.54045701 0.77695173 0.1389758 -0.10340597
4339459375 -0.018795781 0.13578728 -0.14283937 0.93168211 -0.1524013 0.93633717 0.096130535 -0.1348802
4347737500 0.051940069 0.16164361 0.26546302 0.89820838 0.2653366 0.90864229 0.047398653 -0.16683285
4356015625 0.14517815 0.125411 0.61811203 0.70051599 0.62662011 0.7048316 -0.027419275 -0.18608078
4364293750 0.19582011 0.028014369 0.85852975 0.37418491 0.86380601 0.37001169 -0.1186735 -0.15950625
4372571875 0.17336254 -0.073464043 0.94001073 -0.027068328 0.93833143 -0.030827282 -0.1833659 -0.077927068
4380850000 0.12401165 -0.10569455 0.83944565 -0.42570138 0.83959174 -0.42545128 -0.15358162 0.020948065
4389128125 0.071821168 -0.12655592 0.57613462 -0.74803752 0.58044136 -0.74508458 -0.11082943 0.073677137
4397406250 0.025365913 -0.14632812 0.1980671 -0.92454267 0.20631616 -0.9267059 -0.064569674 0.086589381
4405684375 -0.048407517 -0.15844202 -0.21840365 -0.91900522 -0.2144237 -0.92835873 -0.042123459 0.084074974
4413962500 -0.14250532 -0.11322828 -0.58907259 -0.73257416 -0.59457266 -0.74427134 -0.030660782 0.098408118
4422240625 -0.18837367 0.0039221365 -0.83969504 -0.40901577 -0.85248399 -0.41388655 0.0063542351 0.12580507
4430518750 -0.13023962 0.12689371 -0.92961484 -0.018234715 -0.94280821 -0.012033737 0.077629425 0.1247592
4438796875 0.00071314588 0.16256335 -0.85459292 0.37314254 -0.85870296 0.38630217 0.14419205 0.064378008
4447075000 0.1019666 0.085323147 -0.62382048 0.70561504 -0.61713171 0.71666086 0.15226105 -0.03529305
4455353125 0.094053753 -0.028282583 -0.26307273 0.9160707 -0.25303757 0.91743982 0.086723313 -0.11203641
4463631250 0.0045789503 -0.06975574 0.16301735 0.94493228 0.1673682 0.94057304 -0.0060436991 -0.11614338
4471909375 -0.06121349 -0.01502182 0.55689329 0.77828795 0.55709386 0.77637094 -0.059364755 -0.05852443
4480187500 -0.040877607 0.057982575 0.83302498 0.46116948 0.8343702 0.46162277 -0.047443442 0.0011670913
4488465625 0.025440011 0.069264404 0.94823146 0.062406071 0.95061731 0.060734671 -0.0045445301 0.015710199
4496743750 0.05842359 0.022619257 0.88599908 -0.34904879 0.88623422 -0.35125658 0.019461643 -0.010486352
4505021875 0.03444222 -0.014669283 0.65098387 -0.69801188 0.65114653 -0.69846338 0.0079876538 -0.039220076
4513300000 -0.0043737418 0.026895434 0.28615826 -0.9072513 0.28604221 -0.90749782 -0.0073970282 -0.042675115
4521578125 0.019489452 0.055076256 -0.13083689 -0.94095057 -0.13041554 -0.94194406 -0.025750253 -0.042073302
4529856250 0.064784899 0.040167607 -0.52030528 -0.79443055 -0.52084148 -0.79529142 -0.043954261 -0.041095667
4538134375 0.074634545 -0.0110109 -0.81140023 -0.4968594 -0.81193697 -0.49584171 -0.073856294 -0.033588778
4546412500 0.038055617 -0.040672496 -0.94953614 -0.099639811 -0.94623905 -0.098517329 -0.1077291 0.0015771724
4554690625 0.009274669 -0.020179674 -0.89990973 0.32175052 -0.8940587 0.31690627 -0.11354831 0.066428438
4562968750 0.034283962 0.0038753359 -0.66847098 0.6777879 -0.67009717 0.66480678 -0.069092199 0.1277318
4571246875 0.080449134 -0.033290017 -0.30817157 0.89276439 -0.32437122 0.88433439 0.0066105011 0.14465241
4579525000 0.065822467 -0.12451489 0.10148539 0.93056518 0.080680519 0.9408285 0.066888183 0.1108855
4587803125 -0.041677911 -0.18361674 0.48307157 0.79357666 0.47855702 0.82009983 0.083256096 0.063666575
4596081250 -0.17673278 -0.13551538 0.76885593 0.51259845 0.78940123 0.53361726 0.075842649 0.044299595
4604359375 -0.23902369 0.00080650154 0.91109002 0.14001486 0.93928337 0.13612534 0.091296479 0.0490993
4612637500 -0.19357651 0.13468297 0.88512713 -0.25786066 0.89657855 -0.28050414 0.14371057 0.02805537
4620915625 -0.092909992 0.19602841 0.69464475 -0.61033869 0.68430084 -0.62733597 0.18549722 -0.057173073
4629193750 -0.0079486622 0.1955929 0.36852819 -0.85168827 0.35385552 -0.8499186 0.15179133 -0.17986485
4637471875 0.049225375 0.18448161 -0.033000052 -0.92970157 -0.033700585 -0.91771966 0.026772346 -0.26326609
4645750000 0.11569832 0.17472953 -0.43113101 -0.82298136 -0.43131536 -0.82299048 -0.10018125 -0.1874125
4654028125 0.19863383 0.12551306 -0.73917824 -0.55630583 -0.74120647 -0.56130755 -0.17756182 -0.11730526
4662306250 0.25310597 0.018251011 -0.90246832 -0.18872066 -0.9115842 -0.19094262 -0.20281951 -0.029059287
4670584375 0.23188624 -0.11199901 -0.89745688 0.21079452 -0.9057489 0.21977235 -0.19309087 0.043707386
4678862500 0.13981366 -0.20016599 -0.72732192 0.57456899 -0.72223425 0.58745778 -0.17587829 0.10441837
4687140625 0.034217909 -0.21669696 -0.41392842 0.83639979 -0.39727691 0.83697104 -0.14666636 0.1767779
4695418750 -0.038176078 -0.19342509 -0.0099717118 0.93726367 0.00051866885 0.91920245 -0.070985273 0.25480711
4703696875 -0.088871084 -0.17619674 0.39874539 0.84592849 0.38718832 0.8236745 0.063278206 0.28967956
4711975000 -0.15925238 -0.15817331 0.71996778 0.58304387 0.69139689 0.57947159 0.21388862 0.23465054
4720253125 -0.24645592 -0.091040619 0.8885203 0.2157177 0.86604553 0.23820017 0.30917919 0.093860365
4728531250 -0.29223806 0.041750126 0.88512301 -0.17551163 0.88929754 -0.14323987 0.30561629 -0.073241092
4736809375 -0.24732159 0.19219242 0.7267825 -0.52349383 0.75374901 -0.50768834 0.21687026 -0.19871716
4745087500 -0.1229038 0.28983793 0.44373706 -0.77794975 0.4705683 -0.78840971 0.096387975 -0.25065622
4753365625 0.022505658 0.30297586 0.077650771 -0.89754862 0.085180968 -0.92076832 -0.0085436041 -0.24684222
4761643750 0.13839702 0.25438595 -0.31259865 -0.85177189 -0.32217935 -0.868469 -0.091137081 -0.22080766
4769921875 0.21816218 0.18036582 -0.64978802 -0.63902932 -0.66331834 -0.64286685 -0.16878602 -0.17990102
4778200000 0.27677122 0.088072546 -0.85923958 -0.29887378 -0.85951567 -0.29864314 -0.27026653 -0.092499413
4786478125 0.30054855 -0.035060607 -0.90342098 0.093814895 -0.90413147 0.092498332 -0.28906637 0.039988432
4794756250 0.2596921 -0.17043665 -0.77959609 0.46650031 -0.78182364 0.46631113 -0.23581752 0.1672966
4803034375 0.14782839 -0.26913473 -0.51194364 0.75435853 -0.51294625 0.75705135 -0.12872323 0.24352832
4811312500 0.0055617965 -0.28910163 -0.14452052 0.90559703 -0.14231633 0.90921968 -0.015037058 0.25386962
4819590625 -0.1084919 -0.23845072 0.25833008 0.88681233 0.26337478 0.88606268 0.070238978 0.22328801
4827868750 -0.17195483 -0.16417575 0.6183297 0.69276428 0.62058014 0.68637139 0.13148178 0.18519059
4836146875 -0.20906429 -0.094832167 0.85848278 0.35675207 0.85321343 0.35091463 0.19292025 0.14143196
4844425000 -0.24044463 -0.015222044 0.92380422 -0.050665013 0.91606015 -0.048053924 0.25579992 0.063640721
4852703125 -0.24364282 0.094986238 0.80591297 -0.43761012 0.80408311 -0.42969036 0.28136557 -0.061660115
4860981250 -0.17963986 0.21222304 0.54023743 -0.73078287 0.54606938 -0.72603524 0.22844021 -0.20102979
4869259375 -0.049885303 0.27869034 0.18456204 -0.88555306 0.18998998 -0.88852149 0.097001992 -0.29233798
4877537500 0.093040563 0.25820303 -0.20143752 -0.88403636 -0.20256063 -0.88843828 -0.06225542 -0.29260275
4885815625 0.188821 0.17143953 -0.55910969 -0.72334439 -0.56266367 -0.72256994 -0.18497343 -0.21084522
4894093750 0.22160484 0.072364695 -0.82164121 -0.4194046 -0.82150739 -0.41607615 -0.24013358 -0.09562169
4902371875 0.22144133 -0.0086267581 -0.92682886 -0.025118809 -0.92415649 -0.023438444 -0.24025753 0.01172869
4910650000 0.22608061 -0.080280237 -0.84520048 0.3718226 -0.84525812 0.37215188 -0.20846531 0.099973455
4918928125 0.17376602 -0.17173463 -0.60559195 0.69614625 -0.60461193 0.69732928 -0.15126465 0.1724645
4927206250 0.070762552 -0.23621754 -0.2540645 0.88766438 -0.25089356 0.88717198 -0.06341023 0.22087885
4935484375 -0.059663467 -0.23033583 0.14580373 0.91598767 0.14867422 0.91152829 0.044489399 0.21994379
4943762500 -0.15539223 -0.14815536 0.52534628 0.77212876 0.52356428 0.76600236 0.13444561 0.15887532
4952040625 -0.17361432 -0.042250566 0.81105942 0.47580156 0.80458444 0.47300556 0.16704731 0.065568976
4960318750 -0.13557522 0.023877289 0.94170666 0.080687046 0.9357301 0.083077617 0.14280277 -0.0092395758
4968596875 -0.10233951 0.040316932 0.88745075 -0.33461386 0.88493776 -0.33009139 0.10313604 -0.037489638
4976875000 -0.10171574 0.054552037 0.65695369 -0.68612248 0.65730888 -0.68291968 0.089777231 -0.043589454
4985153125 -0.09744937 0.10239323 0.29492372 -0.90206963 0.29579282 -0.90052944 0.095000863 -0.072536789
4993431250 -0.044682801 0.15708819 -0.12210467 -0.93644363 -0.12203916 -0.93604726 0.070952177 -0.13190727
5001709375 0.046110857 0.16310883 -0.50766098 -0.78908205 -0.50945538 -0.78833592 -0.011051879 -0.17486723
5009987500 0.11777251 0.1058104 -0.79070586 -0.49785802 -0.79251957 -0.49389628 -0.11894628 -0.1469097
5018265625 0.13145931 0.026567396 -0.92738235 -0.11805619 -0.92544925 -0.11199268 -0.18349938 -0.04556527
5026543750 0.10227306 -0.026647126 -0.89380842 0.28772312 -0.88718891 0.29006794 -0.16056386 0.070826657
5034821875 0.069786593 -0.047473721 -0.68894601 0.64574957 -0.68339199 0.64186829 -0.070867345 0.13217619
5043100000 0.047752194 -0.054895658 -0.34418803 0.88244736 -0.34403786 0.8825022 -0.023533961 0.059101641
5051378125 0.013542673 -0.074825145 0.067575589 0.94363689 0.06852375 0.94663167 -0.014709258 0.046409227
5059656250 -0.04217957 -0.064112946 0.46325436 0.82339859 0.46813947 0.82483798 -0.014322704 0.051434636
5067934375 -0.074212477 -0.0034081538 0.77021128 0.54776001 0.7744025 0.54478782 0.0041770344 0.064158969
5076212500 -0.036020957 0.063756473 0.93200856 0.16738006 0.93383598 0.16379617 0.038043551 0.054887507
5084490625 0.050552081 0.063186929 0.91611362 -0.24816942 0.91816509 -0.25232938 0.053739648 0.015521127
5092768750 0.098487824 -0.022367822 0.72094828 -0.61878783 0.72172946 -0.62692237 0.027354041 -0.021691242
5101046875 0.04514616 -0.11826014 0.38529804 -0.8669886 0.37739506 -0.8770557 -0.020241166 -0.016107215
5109325000 -0.071079455 -0.12959558 -0.022231121 -0.94600004 -0.038072292 -0.94748461 -0.039649494 0.033307631
5117603125 -0.14877434 -0.04394355 -0.42185262 -0.8464008 -0.43464306 -0.8344931 -0.0031851409 0.081984468
5125881250 -0.13068368 0.058015741 -0.74383992 -0.58871037 -0.74358791 -0.5716157 0.065278016 0.082701229
5134159375 -0.057669643 0.094980448 -0.92920232 -0.21406949 -0.91839814 -0.20321575 0.11539254 0.029052401
5142437500 -0.01315222 0.067476198 -0.93411148 0.20989095 -0.92047954 0.21004839 0.11522096 -0.043849874
5150715625 -0.025266662 0.044719268 -0.7483207 0.59488744 -0.74074024 0.58678544 0.073697515 -0.09609776
5158993750 -0.043605816 0.072060354 -0.41484499 0.85416496 -0.41531461 0.84645033 0.020950342 -0.11654629
5167271875 -0.013777613 0.11845464 -0.0097360108 0.9423002 -0.013158886 0.93982649 -0.028848151 -0.11921276
5175550000 0.053885356 0.1261723 0.38975847 0.85405046 0.39020282 0.85507882 -0.084076695 -0.10914958
5183828125 0.10846081 0.08971712 0.71527797 0.60600495 0.71599156 0.60437268 -0.14157796 -0.068367615
5192106250 0.12862495 0.038421262 0.90521437 0.24090177 0.90161037 0.24040954 -0.17552571 0.0058472422
5200384375 0.13317721 -0.0001179301 0.91756213 -0.17258856 0.9153682 -0.16479397 -0.16167338 0.092666984
5208662500 0.14761733 -0.042814363 0.7505548 -0.54769236 0.7600435 -0.53684604 -0.10229465 0.15437801
5216940625 0.15015127 -0.12306452 0.44306865 -0.81091356 0.46217215 -0.81456041 -0.029616388 0.17044675
5225218750 0.083208255 -0.22339924 0.055842161 -0.91693693 0.064831182 -0.93999749 0.023045292 0.1562032
5233496875 -0.061825275 -0.26489675 -0.33653617 -0.84856617 -0.35252282 -0.87348408 0.056492671 0.14488015
5241775000 -0.21107402 -0.19424985 -0.65745807 -0.62369144 -0.69157761 -0.62750089 0.10379381 0.14366437
5250053125 -0.27656114 -0.047228221 -0.85526037 -0.29364884 -0.88189757 -0.26712176 0.18219781 0.114058
5258331250 -0.2404858 0.088590965 -0.90612233 0.089374602 -0.90168518 0.12985474 0.2548095 0.014160884
5266609375 -0.15901661 0.15753059 -0.79555607 0.47140014 -0.75833386 0.49271095 0.25033438 -0.14305086
5274887500 -0.093587942 0.17851217 -0.51856124 0.78151286 -0.47997051 0.76150084 0.132185 -0.27936128
5283165625 -0.045080453 0.19938579 -0.11990517 0.93267351 -0.1188916 0.89151973 -0.05500856 -0.30944231
5291443750 0.024841413 0.22446284 0.29839599 0.88120407 0.26427457 0.86352533 -0.21201387 -0.2160309
5299721875 0.12501249 0.21351959 0.63601112 0.657498 0.60889184 0.67978883 -0.26753479 -0.064569749
5308000000 0.21821973 0.14332482 0.85190415 0.33442441 0.85239893 0.33448237 -0.25508845 -0.028991876
5316278125 0.26036534 0.022061249 0.9122237 -0.05440855 0.91295892 -0.059041411 -0.24128318 0.074384011
5324556250 0.22721069 -0.092218533 0.80565012 -0.43789172 0.79961228 -0.44175082 -0.19865155 0.16334456
5332834375 0.15880227 -0.15829137 0.54051369 -0.74372452 0.5333938 -0.7381084 -0.12443596 0.2403997
5341112500 0.097439483 -0.19439104 0.1646039 -0.90187365 0.16750245 -0.89056879 -0.010258168 0.28642094
5349390625 0.031392731 -0.23402317 -0.23840685 -0.87764049 -0.22281583 -0.87357074 0.12609784 0.26947406
5357668750 -0.077049322 -0.25943202 -0.58409309 -0.6853376 -0.56761432 -0.69970369 0.23876554 0.17936565
5365946875 -0.21491808 -0.2125074 -0.81133145 -0.37231538 -0.81353682 -0.39866915 0.28503835 0.044478405
5374225000 -0.31005642 -0.076363444 -0.88846868 0.00051683182 -0.9137947 -0.015760954 0.25610477 -0.083282672
5382503125 -0.30320767 0.092952304 -0.80882907 0.37023038 -0.83837366 0.38131401 0.18069181 -0.16786595
5390781250 -0.20492455 0.21472433 -0.585567 0.67910355 -0.59289682 0.70851237 0.094658263 -0.20749713
5399059375 -0.080226921 0.25262552 -0.24628785 0.87351024 -0.22847161 0.89346159 0.012073136 -0.21944936
5407337500 0.014376236 0.23515517 0.15486097 0.90408128 0.17566313 0.90135235 -0.073883474 -0.20904143
5415615625 0.079872735 0.20894441 0.53446788 0.75116885 0.54043823 0.73814934 -0.16057371 -0.16156949
5423893750 0.14869614 0.17814338 0.8061437 0.44597447 0.80135691 0.43836588 -0.22067422 -0.068253905
5432171875 0.22027023 0.10965166 0.91622937 0.057834256 0.91169399 0.057787504 -0.22183141 0.047739033
5440450000 0.25104886 -0.0040050722 0.8547498 -0.33600768 0.85451651 -0.33604315 -0.18435942 0.15931408
5448728125 0.20940003 -0.11558954 0.63308859 -0.66797137 0.63315952 -0.66836458 -0.089495197 0.20852114
5457006250 0.12188511 -0.1772974 0.28929418 -0.87811333 0.28895947 -0.87914848 0.0015285097 0.20585792
5465284375 0.039181579 -0.18478781 -0.11692075 -0.92159259 -0.11809648 -0.92131734 0.068888225 0.17669073
5473562500 -0.01771336 -0.17530444 -0.50448036 -0.78228664 -0.50279599 -0.78031862 0.12241616 0.13961175
5481840625 -0.074727833 -0.1701082 -0.79139209 -0.48630443 -0.78640783 -0.48941734 0.17331888 0.085503228
5490118750 -0.15357406 -0.14260279 -0.91765648 -0.097904965 -0.91987002 -0.10780726 0.20581743 -0.0016507548
5498396875 -0.22406417 -0.05713423 -0.86543 0.29932511 -0.87962669 0.29577324 0.18499433 -0.11034223
5506675000 -0.22941433 0.070525959 -0.65628994 0.6322546 -0.6684925 0.64589053 0.097223282 -0.19424571
5514953125 -0.15075962 0.17401719 -0.33272505 0.84997541 -0.32533249 0.86840951 -0.023991879 -0.20757954
5523231250 -0.036574915 0.19945619 0.056267239 0.91877043 0.074913889 0.9207021 -0.11937942 -0.14920193
5531509375 0.045016233 0.15850182 0.44768107 0.81535876 0.45701018 0.80201095 -0.15583625 -0.061837066
5539787500 0.073044136 0.10733428 0.76103932 0.54580396 0.75676042 0.53471977 -0.143207 0.010717692
5548065625 0.081770048 0.079784296 0.92386293 0.16311949 0.91709918 0.15966269 -0.11120106 0.055101972
5556343750 0.10197125 0.057640035 0.90351427 -0.2495565 0.89772445 -0.24984536 -0.077410139 0.08164148
5564621875 0.11968014 0.012241923 0.71059853 -0.61175358 0.70384479 -0.60852343 -0.03861066 0.098801978
5572900000 0.10059878 -0.043631963 0.38285461 -0.86043036 0.38282409 -0.86107004 0.0092872111 0.098059326
5581178125 0.052670475 -0.074866414 -0.022990987 -0.94226027 -0.022029115 -0.9424212 0.049373366 0.072265148
5589456250 0.0068670781 -0.061312784 -0.42546645 -0.84111601 -0.42404249 -0.84185588 0.065057762 0.026660394
5597734375 0.0010028884 -0.031679042 -0.74529409 -0.57714331 -0.74342155 -0.57877499 0.046477925 -0.013145175
5606012500 0.021318708 -0.03299439 -0.92104894 -0.20155255 -0.91958648 -0.20562276 0.011857232 -0.022304822
5614290625 0.016649287 -0.068465747 -0.91912138 0.21435593 -0.92088109 0.20771413 -0.0073345527 -0.004067888
5622568750 -0.033390176 -0.088921621 -0.73615867 0.58974361 -0.74324715 0.58490711 0.00064964755 0.013000193
5630846875 -0.088552669 -0.055960357 -0.40918189 0.84662211 -0.41813472 0.84877193 0.01490302 0.0079845488
5639125000 -0.096500747 0.0070000119 -0.0075991619 0.9375248 -0.010691767 0.94404006 0.01141537 -0.0074727507
5647403125 -0.058036186 0.043325115 0.39256382 0.85078657 0.39375156 0.8542161 -0.0072852629 -0.0066241231
5655681250 -0.023021106 0.030574586 0.71962231 0.60313535 0.71942067 0.60283929 -0.013133815 0.017730176
5663959375 -0.031550489 0.004201991 0.90984106 0.23611787 0.90788126 0.23735961 0.013608467 0.039160367
5672237500 -0.066722378 0.01328649 0.92179579 -0.17834379 0.92159307 -0.17432344 0.057364695 0.025138294
5680515625 -0.079907984 0.061620001 0.75441438 -0.55439228 0.75662243 -0.55211616 0.077604473 -0.02757659
5688793750 -0.049256027 0.10959123 0.44528878 -0.82051659 0.44674727 -0.82088917 0.050086115 -0.085134879
5697071875 0.0021960204 0.12619439 0.052855026 -0.93171197 0.052402761 -0.93088716 -0.010933113 -0.11000179
5705350000 0.046809889 0.12091962 -0.35246974 -0.86924011 -0.35273781 -0.86937064 -0.071479097 -0.094763763
5713628125 0.084228344 0.11029956 -0.69101167 -0.63216347 -0.69123656 -0.63293153 -0.11129157 -0.055266451
5721906250 0.13730335 0.08907941 -0.8915391 -0.27333257 -0.89395785 -0.27313095 -0.13388157 -0.011256586
5730184375 0.19376937 0.023412783 -0.91864127 0.1319209 -0.92003036 0.13720515 -0.14927173 0.042237513
5738462500 0.20262486 -0.088987194 -0.77430201 0.50689167 -0.7679435 0.51461697 -0.14264223 0.11705114
5746740625 0.12961937 -0.19535145 -0.48804283 0.78748852 -0.47241133 0.78716606 -0.085501172 0.19703013
5755018750 0.0032546308 -0.23140083 -0.10736544 0.92410362 -0.094654344 0.90770507 0.026116835 0.23599771
5763296875 -0.10455603 -0.18485558 0.29970783 0.88572842 0.29551035 0.86044729 0.150784 0.19661768
5771575000 -0.14992644 -0.10845701 0.65617228 0.67329133 0.63150704 0.65740478 0.22831814 0.087369889
5779853125 -0.15698995 -0.05660456 0.88522893 0.3215985 0.85483426 0.32973984 0.22514637 -0.03926627
5788131250 -0.17543429 -0.024359273 0.93270409 -0.095968239 0.92030698 -0.067677215 0.16052493 -0.12700954
5796409375 -0.20856109 0.035554942 0.79025018 -0.48550189 0.8045184 -0.46113712 0.08406911 -0.16030261
5804687500 -0.20794396 0.13740528 0.5009715 -0.7654233 0.52501792 -0.76546043 0.026903661 -0.16837539
5812965625 -0.13794442 0.23933558 0.13166101 -0.89587754 0.13996436 -0.91378468 -0.02585754 -0.18064642
5821243750 -0.015615093 0.28738195 -0.25437868 -0.86653435 -0.26697031 -0.87811166 -0.1041863 -0.18567364
5829521875 0.10937389 0.26602507 -0.59710252 -0.67947567 -0.61080885 -0.671606 -0.20314361 -0.14339799
5837800000 0.20416577 0.1994769 -0.83109748 -0.36172915 -0.83157861 -0.36157951 -0.27525944 0.0076897172
5846078125 0.26835027 0.10678572 -0.90418112 0.026251629 -0.90490144 0.02242686 -0.24955729 0.13058192
5854356250 0.30258286 -0.0099349935 -0.80378407 0.40634063 -0.81291986 0.40403455 -0.16812436 0.22249529
5862634375 0.28302759 -0.15168144 -0.5542748 0.70436013 -0.56476563 0.71666712 -0.061189495 0.26259175
5870912500 0.18193063 -0.2797333 -0.20687896 0.86923933 -0.19907165 0.89229411 0.042449974 0.25741339
5879190625 0.017865106 -0.33203599 0.17502622 0.87750095 0.20592596 0.88587022 0.13422133 0.22129883
5887468750 -0.14004056 -0.28277844 0.53096408 0.72882825 0.5601427 0.70479769 0.21573611 0.15657279
5895746875 -0.22864124 -0.1719415 0.79910898 0.43994808 0.79750681 0.39818925 0.27681869 0.052667983
5904025000 -0.24644287 -0.067122869 0.92205721 0.052209448 0.88689607 0.027551601 0.28617576 -0.08765848
5912303125 -0.2427424 0.0041811625 0.8559739 -0.36048469 0.81628865 -0.34723598 0.21508355 -0.22837077
5920581250 -0.24906521 0.074526913 0.60693598 -0.69699967 0.5945009 -0.65986669 0.072648145 -0.31271946
5928859375 -0.2361411 0.17857926 0.24061428 -0.87879837 0.26094303 -0.85023713 -0.089783214 -0.30672252
5937137500 -0.15491675 0.29128939 -0.15238878 -0.88375181 -0.12142723 -0.88424844 -0.21614504 -0.22614765
5945415625 -0.0057800305 0.3492046 -0.50178003 -0.73308009 -0.48758799 -0.75607681 -0.28591236 -0.11068656
5953693750 0.15628266 0.31359574 -0.76055866 -0.45781931 -0.77152026 -0.47902122 -0.30497357 0.014056003
5961971875 0.26877296 0.20327207 -0.88712388 -0.097213894 -0.90834826 -0.098476946 -0.27577069 0.13731334
5970250000 0.30838808 0.070407569 -0.84962189 0.29041794 -0.84958023 0.29044577 -0.19329506 0.235759
5978528125 0.30055049 -0.046238385 -0.6450364 0.62981653 -0.64858663 0.62267095 -0.07043165 0.2945151
5986806250 0.26904398 -0.15970275 -0.31184289 0.84452343 -0.32761705 0.84362251 0.068735398 0.28708166
5995084375 0.18561503 -0.2768442 0.076898053 0.89251947 0.064363867 0.91148847 0.18236774 0.21206689
6003362500 0.030591199 -0.3481212 0.44360802 0.77372408 0.45486155 0.80017507 0.23661262 0.10170594
6011640625 -0.15173036 -0.31659767 0.72571808 0.51789206 0.75780499 0.52483904 0.23525348 0.00029505312
6019918750 -0.27820301 -0.18355286 0.88127351 0.1691259 0.90776843 0.14705844 0.21153349 -0.075256936
6028196875 -0.2956087 -0.020239688 0.88292408 -0.22155973 0.88013566 -0.25618249 0.18464993 -0.14774568
6036475000 -0.2311862 0.08922141 0.71730775 -0.58881265 0.6813423 -0.61088371 0.12628087 -0.23598805
6044753125 -0.16604707 0.12282925 0.40479991 -0.85018587 0.35507819 -0.83881545 0.0025036631 -0.302872
6053031250 -0.13832441 0.14428602 -0.0049590808 -0.94265574 -0.032296758 -0.90058661 -0.16723508 -0.28261882
6061309375 -0.10545603 0.20077302 -0.42215878 -0.83317471 -0.40014014 -0.79716253 -0.3010242 -0.14986536
6069587500 -0.017575108 0.25668171 -0.73095906 -0.5595817 -0.69141114 -0.56223249 -0.32293344 0.03985827
6077865625 0.11017019 0.24873604 -0.88959414 -0.19721289 -0.87159991 -0.2294703 -0.22495987 0.19301091
6086143750 0.21066095 0.15999532 -0.88956302 0.19078659 -0.903027 0.16224134 -0.070562631 0.24035691
6094421875 0.23591857 0.040450245 -0.73321897 0.55021954 -0.7571606 0.54397899 0.048148744 0.18598367
6102700000 0.20159656 -0.051229808 -0.42954832 0.81889719 -0.42959714 0.81954837 0.04731511 0.19083865
6110978125 0.1566665 -0.11062664 -0.036154602 0.9290337 -0.036182642 0.92792803 0.10676604 0.1468581
6119256250 0.10684434 -0.16215184 0.36788806 0.85437268 0.36638281 0.85461015 0.15190648 0.090874836
6127534375 0.025802847 -0.20540516 0.69705743 0.61422682 0.69631326 0.61472875 0.17701179 0.012963732
6135812500 -0.087256588 -0.19674982 0.89195782 0.26060912 0.89120603 0.26086608 0.15754421 -0.078368232
6144090625 -0.17542636 -0.10928709 0.92176855 -0.14174832 0.92089868 -0.142032 0.083845921 -0.14605176
6152368750 -0.17524998 0.01052867 0.77973139 -0.52450502 0.77700418 -0.52480078 -0.015219836 -0.15257211
6160646875 -0.095650934 0.073249437 0.48215929 -0.81577641 0.47787818 -0.81313699 -0.087721452 -0.098705567
6168925000 -0.027144104 0.041749228 0.080766551 -0.94962668 0.079510324 -0.94188243 -0.1035546 -0.02558391
6177203125 -0.046576057 -0.016322279 -0.34082657 -0.88978541 -0.33312133 -0.88300622 -0.077542968 0.022650547
6185481250 -0.12190868 -0.0003001648 -0.68929297 -0.65165854 -0.67821622 -0.6558072 -0.047430266 0.037482731
6193759375 -0.14584029 0.10089621 -0.89635426 -0.29111943 -0.89501548 -0.30430603 -0.03031492 0.041627832
6202037500 -0.063558027 0.19364062 -0.93074894 0.11703499 -0.94231212 0.11064766 -0.013517317 0.049500603
6210315625 0.066738613 0.18554585 -0.7928229 0.49939916 -0.80330658 0.50773823 0.014764803 0.049158305
6218593750 0.13531233 0.085360453 -0.50732505 0.79134697 -0.50406468 0.80226046 0.041025888 0.02349491
6226871875 0.10078373 -0.0074515403 -0.12047388 0.93621421 -0.11191092 0.93637353 0.038582209 -0.017925417
6235150000 0.06442643 0.047837336 0.29491317 0.89397538 0.29554453 0.89420813 0.0025600828 -0.04335041
6243428125 0.086672217 0.051294643 0.64889723 0.68076766 0.65024287 0.68280303 -0.040457141 -0.039717153
6251706250 0.13034962 0.013921774 0.87645501 0.33769363 0.88107914 0.33844271 -0.066541597 -0.0091582686
6259984375 0.13311791 -0.067454316 0.93537074 -0.067753538 0.94057697 -0.07144542 -0.066308655 0.023061965
6268262500 0.068545662 -0.13116866 0.81837779 -0.45890203 0.82083261 -0.4659389 -0.057399102 0.040835965
6276540625 -0.015068881 -0.12587351 0.547126 -0.76555926 0.54385149 -0.77468795 -0.055954058 0.057911817
6284818750 -0.049711216 -0.075208604 0.1662529 -0.93138844 0.15659572 -0.93522131 -0.047773458 0.093896352
6293096875 -0.031793866 -0.051662892 -0.25466385 -0.91424674 -0.26286831 -0.9074111 -0.00040749865 0.13628876
6301375000 -0.029362522 -0.082788117 -0.62662387 -0.71016687 -0.6215741 -0.70162892 0.088799566 0.13792665
6309653125 -0.092600241 -0.11233362 -0.86454737 -0.36487603 -0.85423267 -0.37024999 0.17300665 0.065967359
6317931250 -0.18687141 -0.069640592 -0.92657799 0.039430857 -0.92993987 0.024174895 0.1905199 -0.058751814
6326209375 -0.23251708 0.046308875 -0.81595057 0.42297652 -0.83392501 0.41830605 0.11774426 -0.16928968
6334487500 -0.19025289 0.16813402 -0.56115532 0.72538424 -0.57616746 0.73664492 -0.0051613878 -0.20422123
6342765625 -0.093285531 0.23566082 -0.20180559 0.89737636 -0.204503 0.91349781 -0.10734944 -0.15999128
6351043750 0.003923933 0.24684435 0.20314611 0.89988166 0.20851485 0.91290444 -0.15158223 -0.087942228
6359321875 0.085888699 0.23497845 0.57127738 0.72320628 0.58241016 0.73325735 -0.1601425 -0.035217419
6367600000 0.15194939 0.19525461 0.82051218 0.40488043 0.82083726 0.40448958 -0.22739394 0.027937934
6375878125 0.24291795 0.11932497 0.91002071 0.015332142 0.91132534 0.014229182 -0.20845152 0.11515774
6384156250 0.28438145 -0.014640987 0.82824183 -0.37096727 0.82736415 -0.37256467 -0.15519534 0.20323865
6392434375 0.23614658 -0.15325747 0.59454972 -0.6880362 0.59106338 -0.68730986 -0.051571283 0.26924604
6400712500 0.12313569 -0.22687814 0.24682781 -0.8811515 0.24353889 -0.87420273 0.087567635 0.27227867
6408990625 0.019403651 -0.22206402 -0.15936163 -0.90862709 -0.15194482 -0.89438522 0.21126886 0.1942154
6417268750 -0.033541337 -0.1943069 -0.54325271 -0.74908161 -0.51736712 -0.74440181 0.27076155 0.064968415
6425546875 -0.071700945 -0.19635858 -0.81271029 -0.43040666 -0.78560138 -0.4560177 0.25749686 -0.063562252
6433825000 -0.15506671 -0.2041588 -0.90351123 -0.032083347 -0.90940034 -0.078073509 0.1986246 -0.15949483
6442103125 -0.2751773 -0.14548913 -0.81480867 0.34815571 -0.85896003 0.32332289 0.1199202 -0.22401986
6450381250 -0.35535145 0.0057000252 -0.58644694 0.64498073 -0.63236547 0.66506648 0.02364238 -0.26435757
6458659375 -0.32642239 0.19567154 -0.26812273 0.82364118 -0.27918264 0.86688942 -0.093342096 -0.26862332
6466937500 -0.18909076 0.33561021 0.095183089 0.86413974 0.11738532 0.89281267 -0.21542729 -0.21581008
6475215625 -0.0082734339 0.37270144 0.45099434 0.75306553 0.47847977 0.75362653 -0.30421108 -0.10068884
6483493750 0.14358199 0.32253256 0.73346716 0.49920389 0.74738383 0.484014 -0.32360706 0.048457574
6491771875 0.24527358 0.23457265 0.88220966 0.14400595 0.88277012 0.13038425 -0.26664007 0.18385695
6500050000 0.30114064 0.1366381 0.85446954 -0.25588366 0.85457766 -0.25584617 -0.15801063 0.27182996
6508328125 0.33932564 -0.0093996422 0.6532051 -0.60611433 0.66489202 -0.59807956 -0.027666762 0.30424941
6516606250 0.30087948 -0.16505481 0.33114612 -0.82627791 0.3466275 -0.82671332 0.094097823 0.28632149
6524884375 0.18705849 -0.27654639 -0.045264632 -0.89134145 -0.044755813 -0.89342725 0.20407745 0.22750746
6533162500 0.044969559 -0.3079333 -0.41942823 -0.79554272 -0.41970122 -0.78421116 0.29090118 0.12453821
6541440625 -0.068530351 -0.27525637 -0.72583926 -0.54464078 -0.70584416 -0.52884376 0.32692614 -0.020820344
6549718750 -0.14190075 -0.22728932 -0.89481872 -0.17657365 -0.85679162 -0.18587711 0.28404617 -0.17638209
6557996875 -0.20860907 -0.18282779 -0.87854427 0.23056585 -0.85858572 0.18566522 0.16308019 -0.29185107
6566275000 -0.28717607 -0.11003484 -0.68472856 0.57896966 -0.70855784 0.53069329 0.0007635387 -0.32642469
6574553125 -0.33996466 0.022639325 -0.37134695 0.80097908 -0.42305875 0.78862137 -0.14717789 -0.27459586
6582831250 -0.3086946 0.18988635 -0.0069613014 0.87449098 -0.046264943 0.90183592 -0.23912902 -0.16844735
6591109375 -0.17920668 0.31797242 0.35279199 0.79992729 0.34746033 0.83981717 -0.27158055 -0.051473889
6599387500 -0.0044289408 0.3486008 0.65820414 0.58690798 0.67797995 0.61116976 -0.26260564 0.056860454
6607665625 0.13966146 0.28665027 0.85412353 0.25837654 0.87633693 0.25973332 -0.21939442 0.15650523
6615943750 0.22007772 0.18826495 0.89202702 -0.1320138 0.90108228 -0.14136197 -0.13543034 0.23626795
6624221875 0.2592037 0.09089347 0.75276703 -0.50511092 0.75288522 -0.51060152 -0.018304931 0.26996553
6632500000 0.27534592 -0.01439217 0.46436894 -0.77988625 0.46438149 -0.78068 0.10038589 0.24044104
6640778125 0.24879442 -0.13403291 0.08791811 -0.90340304 0.088970318 -0.90668535 0.18759771 0.15725827
6649056250 0.1532398 -0.23475178 -0.3021051 -0.85910094 -0.30824792 -0.86221617 0.21732198 0.050641447
6657334375 0.014399103 -0.25946745 -0.64191699 -0.65735888 -0.65115261 -0.64869571 0.19720392 -0.041734613
6665612500 -0.093534298 -0.19695622 -0.87313664 -0.32491028 -0.8679235 -0.30704507 0.15469429 -0.10757573
6673890625 -0.11901433 -0.11141842 -0.93958408 0.088064224 -0.91677016 0.095678553 0.10178722 -0.15954928
6682168750 -0.097567104 -0.080373414 -0.81038976 0.49646327 -0.78676522 0.48142773 0.025720084 -0.20003456
6690446875 -0.11651234 -0.097927377 -0.50696123 0.80161184 -0.50142258 0.77200866 -0.078971855 -0.20289962
6698725000 -0.19716878 -0.075722255 -0.10382968 0.93312073 -0.12116588 0.90662122 -0.18085073 -0.14031416
6707003125 -0.2575056 0.039215885 0.30457449 0.87338001 0.27205369 0.86700559 -0.22912094 -0.023907535
6715281250 -0.21115467 0.18940949 0.63510472 0.65247917 0.60875589 0.67259324 -0.19825727 0.095602781
6723559375 -0.068077065 0.2691263 0.84042007 0.32624528 0.83997643 0.3572877 -0.1100212 0.16623685
6731837500 0.079409346 0.23374505 0.90070421 -0.049304742 0.92146266 -0.033980019 -0.013403292 0.17083926
6740115625 0.15041661 0.13164492 0.80558854 -0.42448688 0.82402283 -0.4310987 0.053325642 0.1318056
6748393750 0.14295417 0.045812968 0.55517173 -0.73599625 0.55859673 -0.74818367 0.084495433 0.081407957
6756671875 0.11814389 0.010642448 0.18542401 -0.91084963 0.18195358 -0.91729116 0.095396571 0.034585301
6764950000 0.11792503 -0.012524333 -0.23075821 -0.90739417 -0.2312043 -0.90770876 0.091087401 -0.013713238
6773228125 0.11287809 -0.059219331 -0.59677809 -0.72040856 -0.59849042 -0.71928912 0.06459371 -0.067686938
6781506250 0.068314061 -0.10396755 -0.8484472 -0.39689481 -0.84695113 -0.39162591 0.0025529298 -0.097767718
6789784375 0.0051695686 -0.10107132 -0.93991041 0.0051693404 -0.92951435 0.0077720257 -0.066060886 -0.076065384
6798062500 -0.018401263 -0.057982095 -0.8488853 0.41137055 -0.8374756 0.40048006 -0.095912158 -0.013045568
6806340625 0.011406528 -0.039791189 -0.58602917 0.73948395 -0.58932739 0.72084361 -0.069444187 0.044707514
6814618750 0.031898525 -0.08556474 -0.20730306 0.91636854 -0.22487307 0.90775859 -0.016658174 0.056192368
6822896875 -0.022472572 -0.14751743 0.20544498 0.91096556 0.18858439 0.91835773 0.013262191 0.025873078
6831175000 -0.13268295 -0.13865955 0.57145673 0.73277354 0.56574255 0.7476154 0.0021894441 -0.0013516063
6839453125 -0.20593406 -0.036960229 0.82745612 0.42051202 0.83141595 0.43281889 -0.016900843 0.0062473174
6847731250 -0.17993917 0.084116749 0.92906398 0.027748991 0.93832332 0.033514835 -0.0029788644 0.029605953
6856009375 -0.088846222 0.13664997 0.85380834 -0.37368253 0.86166352 -0.37564221 0.040284391 0.020742645
6864287500 -0.021101439 0.11180286 0.61144644 -0.70597351 0.61295319 -0.71024805 0.063004129 -0.037988201
6872565625 -0.017876402 0.082241423 0.24749584 -0.9000898 0.24464688 -0.89967 0.022564949 -0.10664508
6880843750 -0.027002253 0.10540739 -0.16159452 -0.91708237 -0.16244243 -0.91298765 -0.066725194 -0.1243794
6889121875 0.017562954 0.14896056 -0.53604531 -0.75868642 -0.53480816 -0.75484812 -0.14613889 -0.070249192
6897400000 0.10445111 0.14181809 -0.80553651 -0.45898518 -0.80596733 -0.45943269 -0.14997609 0.014678929
6905678125 0.16862164 0.073477328 -0.92557329 -0.067636348 -0.92448777 -0.070531793 -0.12385514 0.082825705
6913956250 0.17062756 -0.013488987 -0.86514193 0.34494191 -0.86369807 0.33643508 -0.077241153 0.12086622
6922234375 0.13749802 -0.060348947 -0.63365245 0.68821436 -0.63497829 0.67552251 -0.031900428 0.14105523
6930512500 0.12632421 -0.078725345 -0.27828315 0.89372718 -0.28006795 0.8826229 0.021087049 0.15832683
6938790625 0.13437761 -0.12976561 0.13595626 0.91899616 0.12892753 0.91147 0.1005009 0.15774392
6947068750 0.09383031 -0.22479194 0.51115221 0.75892162 0.50334966 0.75906157 0.19178271 0.10217752
6955346875 -0.036194716 -0.29139748 0.77061409 0.46330884 0.76748693 0.46714166 0.24289547 -0.016563388
6963625000 -0.20470038 -0.25140506 0.88299036 0.10086461 0.88380921 0.10251678 0.20989226 -0.15653552
6971903125 -0.31322154 -0.10549351 0.84555727 -0.27165747 0.84436327 -0.2731362 0.097084478 -0.25245836
6980181250 -0.30622184 0.066149078 0.66108543 -0.60322738 0.65626115 -0.60353416 -0.045571938 -0.26583415
6988459375 -0.21573378 0.17849721 0.34778264 -0.83576405 0.34180489 -0.83037925 -0.16106793 -0.20579144
6996737500 -0.11807748 0.21661462 -0.045970235 -0.91189939 -0.04650344 -0.90190101 -0.22454552 -0.11254644
7005015625 -0.048698734 0.2296605 -0.43740812 -0.8036716 -0.42981035 -0.79636449 -0.24593297 -0.016923144
7013293750 0.025758255 0.24958004 -0.73838532 -0.53360206 -0.72940105 -0.53449035 -0.23947805 0.078263462
7021571875 0.13489898 0.24338731 -0.88874489 -0.16668154 -0.88514364 -0.1704475 -0.19712661 0.1757343
7029850000 0.24196763 0.16962916 -0.87312388 0.22185896 -0.8728931 0.22225408 -0.10504249 0.25506645
7038128125 0.29023218 0.038901553 -0.70001543 0.57039762 -0.69585407 0.5699684 0.024622763 0.28044638
7046406250 0.26231167 -0.084705666 -0.39336574 0.81936967 -0.39001805 0.81220263 0.15374081 0.23264682
7054684375 0.19857143 -0.16124351 -0.00067747262 0.9139629 -0.0075321421 0.90479398 0.23135914 0.12881072
7062962500 0.14140385 -0.2104596 0.39804286 0.82229882 0.38270545 0.82393795 0.24441569 0.01723478
7071240625 0.076036945 -0.26853764 0.70934212 0.56177628 0.70215982 0.57962453 0.21918792 -0.069461241
7079518750 -0.041467953 -0.3173475 0.86780554 0.20024884 0.88235772 0.21819614 0.18381883 -0.13860914
7087796875 -0.20424765 -0.2916761 0.85890794 -0.17892049 0.88488042 -0.18366323 0.13140309 -0.21047617
7096075000 -0.33897719 -0.15970269 0.70271891 -0.5126369 0.71329087 -0.54067671 0.034691788 -0.2730923
7104353125 -0.36953402 0.032737393 0.43172663 -0.75702262 0.41231808 -0.78336638 -0.10627304 -0.28186005
7112631250 -0.28454551 0.19508359 0.080331184 -0.87775379 0.04582569 -0.87537122 -0.24552777 -0.20258258
7120909375 -0.14768223 0.26565892 -0.30324501 -0.84306967 -0.31988382 -0.81280547 -0.3205592 -0.050840851
7129187500 -0.03643753 0.26139158 -0.64625865 -0.6382457 -0.63067484 -0.61014062 -0.29775661 0.11619966
7137465625 0.035645921 0.24496017 -0.86510348 -0.29321122 -0.83784699 -0.29180327 -0.19392316 0.23696706
7145743750 0.11384364 0.23526835 -0.90364891 0.11141185 -0.89221674 0.094783776 -0.059364039 0.28258574
7154021875 0.21617261 0.18880904 -0.76298231 0.48440436 -0.76807934 0.47278231 0.062933482 0.26708719
7162300000 0.28364518 0.046120618 -0.49306598 0.75669992 -0.4925096 0.75743639 0.14652969 0.22752364
7170578125 0.26407474 -0.083953142 -0.12800388 0.89666271 -0.12193296 0.89767694 0.22344702 0.14268044
7178856250 0.18428013 -0.17246333 0.26784837 0.873761 0.27622589 0.86549884 0.26540247 0.027992267
7187134375 0.097058944 -0.20095345 0.623734 0.67938858 0.62117279 0.66381007 0.24846244 -0.10326841
7195412500 0.037278429 -0.2047123 0.86063176 0.34063077 0.84399104 0.3331176 0.16176477 -0.21156368
7203690625 -0.017989948 -0.22162706 0.91932631 -0.067631297 0.90305364 -0.056496371 0.032756481 -0.25448754
7211968750 -0.11078296 -0.23188518 0.79322469 -0.45268866 0.79551202 -0.43327981 -0.088706814 -0.22368303
7220246875 -0.23076731 -0.17726681 0.52144843 -0.73947948 0.53807491 -0.73366904 -0.16541997 -0.14648037
7228525000 -0.30687883 -0.039863598 0.16303784 -0.88494438 0.17353849 -0.89745378 -0.19279458 -0.061633207
7236803125 -0.28024933 0.12384052 -0.22136348 -0.87242091 -0.22858547 -0.8859458 -0.19019148 0.0110782
7245081250 -0.16464891 0.22964522 -0.56991774 -0.70326149 -0.58470458 -0.70204961 -0.17255999 0.075860932
7253359375 -0.032950703 0.24250203 -0.82117897 -0.39959887 -0.82667392 -0.38666072 -0.13393645 0.13959594
7261637500 0.054863997 0.19745718 -0.92116046 -0.010034875 -0.91432238 0.00098040793 -0.061747964 0.18828785
7269915625 0.098055698 0.14799534 -0.84115136 0.38994384 -0.8300572 0.39086765 0.03479439 0.19293427
7278193750 0.12967594 0.10826969 -0.59195328 0.71601528 -0.58632582 0.71066028 0.11973342 0.14087513
7286471875 0.15928236 0.057172686 -0.22670396 0.90043116 -0.22681198 0.89644289 0.15698743 0.05396992
7294750000 0.16486724 -0.011118015 0.1803351 0.91074395 0.18026061 0.91118819 0.14196025 -0.027575262
7303028125 0.13036048 -0.071813643 0.55292815 0.74755049 0.55672252 0.7469179 0.098638356 -0.082841918
7311306250 0.081237853 -0.094053 0.82202864 0.43999052 0.82526761 0.43366116 0.047569264 -0.1105275
7319584375 0.054471973 -0.092821084 0.93292385 0.043370496 0.93036091 0.035679076 -0.005297685 -0.12026947
7327862500 0.04644537 -0.1090446 0.85927641 -0.36271659 0.85274345 -0.36602348 -0.062261354 -0.10962211
7336140625 0.012393155 -0.14952493 0.61764818 -0.69387555 0.6120885 -0.69345176 -0.11295769 -0.067684993
7344418750 -0.070519768 -0.16619901 0.26146644 -0.88733333 0.25588232 -0.88607341 -0.13193788 0.0019380834
7352696875 -0.16106777 -0.11278562 -0.13843459 -0.91207635 -0.14578772 -0.90804195 -0.10222808 0.069855526
7360975000 -0.19226827 -0.0056538847 -0.51138747 -0.7695508 -0.51596886 -0.75861692 -0.037391409 0.1013598
7369253125 -0.14324315 0.085532375 -0.79353929 -0.48192558 -0.78878474 -0.468786 0.026257226 0.084002696
7377531250 -0.064080663 0.10754649 -0.92875069 -0.096378684 -0.91612184 -0.089862071 0.058444206 0.036930654
7385809375 -0.021774661 0.07741452 -0.88334113 0.31566602 -0.86977762 0.31301308 0.055840354 -0.0097694453
7394087500 -0.029780576 0.0574122 -0.66024679 0.66830367 -0.65220273 0.65904653 0.03494991 -0.040424068
7402365625 -0.041469701 0.080364861 -0.30585483 0.88663542 -0.30514249 0.87634325 0.0084715206 -0.058667798
7410643750 -0.014067969 0.11860866 0.10478316 0.92895174 0.10060377 0.92183954 -0.025848806 -0.067756072
7418921875 0.043549486 0.12773798 0.49164021 0.792696 0.48646787 0.78918868 -0.069605075 -0.057632554
7427200000 0.093751334 0.10057992 0.78219128 0.50653434 0.78228128 0.50591105 -0.10634803 -0.015685681
7435478125 0.12318215 0.062984064 0.92033654 0.12768131 0.92223036 0.12449855 -0.11185205 0.045564149
7443756250 0.14500627 0.023716418 0.88471198 -0.27274179 0.88714224 -0.27891442 -0.074499637 0.10307948
7452034375 0.1627706 -0.033676706 0.68011987 -0.62264806 0.68230301 -0.63298494 -0.0082244249 0.12517199
7460312500 0.14975899 -0.1152459 0.34627408 -0.85071695 0.34318495 -0.866696 0.05270889 0.10477508
7468590625 0.081498563 -0.1878781 -0.048234437 -0.91547835 -0.065980919 -0.92968774 0.086244985 0.064002782
7476868750 -0.022458619 -0.2046413 -0.4314521 -0.80950731 -0.46135327 -0.80616134 0.099329308 0.026492603
7485146875 -0.10697057 -0.15831918 -0.73676741 -0.55170578 -0.75890899 -0.52412355 0.11091078 -0.008431769
7493425000 -0.13811414 -0.092758872 -0.90649337 -0.18519224 -0.90311527 -0.14753175 0.11932237 -0.059878588
7501703125 -0.13994467 -0.054204937 -0.90125936 0.22538531 -0.87315124 0.24912098 0.097333886 -0.13174978
7509981250 -0.16087998 -0.034281861 -0.71333301 0.59602213 -0.68100804 0.59301162 0.022511497 -0.19382365
7518259375 -0.20448004 0.018020459 -0.38052154 0.84183049 -0.36472875 0.82218391 -0.090885267 -0.20182304
7526537500 -0.21580625 0.12494905 0.01902909 0.91407138 0.016416501 0.89773601 -0.19460052 -0.13709615
7534815625 -0.14545654 0.24010396 0.40075439 0.81134611 0.39417419 0.80755883 -0.24329703 -0.024660345
7543093750 -0.0072738365 0.292579 0.7013154 0.56538802 0.7014063 0.5660395 -0.22596048 0.090161771
7551371875 0.13256617 0.25356868 0.87542838 0.218069 0.879282 0.21290852 -0.16280988 0.17598614
7559650000 0.19107729 0.1767877 0.8896836 -0.18446413 0.88944542 -0.18426695 -0.076526709 0.22775733
7567928125 0.23802283 0.087533951 0.72419828 -0.54743534 0.72558045 -0.54612601 0.028521534 0.24512377
7576206250 0.26096523 -0.0037854442 0.41759455 -0.80120301 0.42344171 -0.80266613 0.14014527 0.2143178
7584484375 0.2591095 -0.11424717 0.038012128 -0.89582616 0.043425582 -0.90666592 0.23102061 0.12563026
7592762500 0.19724639 -0.23595372 -0.3409276 -0.82319009 -0.34697843 -0.84028345 0.2620824 -0.0048005613
7601040625 0.062771119 -0.31560898 -0.65364504 -0.60360628 -0.67496139 -0.61414659 0.21549618 -0.12882039
7609318750 -0.098370478 -0.30273086 -0.84986663 -0.27436292 -0.87629783 -0.26603842 0.11708906 -0.19801196
7617596875 -0.21272148 -0.20545597 -0.89207387 0.11225569 -0.90776414 0.13776499 0.020255383 -0.20371336
7625875000 -0.24595961 -0.08808773 -0.76421225 0.48562342 -0.76007694 0.51778889 -0.044633549 -0.18192405
7634153125 -0.23179463 -0.0056373966 -0.48271349 0.77233708 -0.45781612 0.79529923 -0.096174091 -0.16724826
7642431250 -0.22267957 0.050176609 -0.099540934 0.90685028 -0.065454178 0.90707606 -0.17122887 -0.14630118
7650709375 -0.21903764 0.12599844 0.30301109 0.8570863 0.3267746 0.83407855 -0.2619341 -0.069426037
7658987500 -0.17120022 0.22788768 0.63728517 0.63777655 0.63631803 0.60674727 -0.30483532 0.082077287
7667265625 -0.053243745 0.3025516 0.8392309 0.30441108 0.81782538 0.28625709 -0.23866835 0.25597128
7675543750 0.097796567 0.29708442 0.88502985 -0.075928025 0.85955077 -0.071962632 -0.065429814 0.3630558
7683821875 0.21580629 0.21119595 0.77264649 -0.44022754 0.76022786 -0.41823018 0.14174032 0.34136283
7692100000 0.26911944 0.095834285 0.52152848 -0.73550814 0.52065247 -0.735847 0.1714855 0.20626689
7700378125 0.27409211 -0.014936148 0.15672386 -0.89028591 0.16164209 -0.89392471 0.23169895 0.099246435
7708656250 0.25101966 -0.11578836 -0.24148135 -0.87038958 -0.24027482 -0.88528073 0.23839784 -0.0062601222
7716934375 0.19324122 -0.21569221 -0.58767331 -0.67977953 -0.60479039 -0.69592166 0.21496066 -0.097322911
7725212500 0.081841663 -0.2904985 -0.81530905 -0.36547479 -0.8437531 -0.36131784 0.16783014 -0.18312861
7733490625 -0.06454818 -0.29513747 -0.89259893 0.0096825967 -0.91026896 0.036483783 0.078625783 -0.26058516
7741768750 -0.18440989 -0.21517871 -0.81182379 0.38602614 -0.80298251 0.41749093 -0.061693307 -0.29100093
7750046875 -0.22644514 -0.098471336 -0.57757169 0.7031619 -0.5477981 0.71669507 -0.21417943 -0.22961111
7758325000 -0.20427515 -0.014626512 -0.2183 0.89347231 -0.19027093 0.87800652 -0.30399269 -0.081305914
7766603125 -0.1846606 0.019717494 0.1977146 0.90210032 0.19740152 0.87096125 -0.28491479 0.086305194
7774881250 -0.20111518 0.061727043 0.5706231 0.7199716 0.53974539 0.70538199 -0.181089 0.19581637
7783159375 -0.20323321 0.16078843 0.81499559 0.39825866 0.78457111 0.41889909 -0.059827298 0.22093929
7791437500 -0.11736766 0.27921695 0.89420468 0.016677018 0.89725858 0.054678902 0.028920794 0.19231662
7799715625 0.055773851 0.32191148 0.81380773 -0.3528676 0.84670013 -0.33538648 0.082268953 0.15131722
7807993750 0.22648001 0.23375164 0.59657919 -0.65706706 0.62670565 -0.67482746 0.1236821 0.11105415
7816271875 0.29304138 0.057891052 0.2736508 -0.85387045 0.27393737 -0.88496608 0.16178276 0.056182604
7824550000 0.19995169 0.0084137022 -0.134734 -0.91074592 -0.13511167 -0.91128999 0.17578059 -0.045773618
7832828125 0.17197308 -0.055004627 -0.51536518 -0.76851571 -0.51075274 -0.76807261 0.12465612 -0.12673101
7841106250 0.14830677 -0.098923035 -0.79791301 -0.47219083 -0.79258484 -0.47951025 0.03928028 -0.16387689
7849384375 0.1197682 -0.15646899 -0.92363006 -0.082665659 -0.92708749 -0.09343458 -0.041789278 -0.14698733
7857662500 0.047031835 -0.21527897 -0.86850649 0.32211232 -0.8794238 0.31803936 -0.087738834 -0.10032578
7865940625 -0.068105705 -0.22132826 -0.64477122 0.6619454 -0.65489572 0.66775548 -0.10258198 -0.058318898
7874218750 -0.16628435 -0.14880495 -0.30003181 0.87106365 -0.30083102 0.88266855 -0.1128049 -0.028102627
7882496875 -0.19076015 -0.038288303 0.09711165 0.91570508 0.10698006 0.9226979 -0.12765937 0.012169443
7890775000 -0.14675832 0.040464368 0.47832027 0.7915718 0.4901644 0.78498292 -0.12182153 0.07689707
7899053125 -0.092227511 0.05895903 0.77544594 0.51437747 0.77571458 0.49843436 -0.064578779 0.13979223
7907331250 -0.073233917 0.051515527 0.9262687 0.12924351 0.91128039 0.11968808 0.034363847 0.15067731
7915609375 -0.078137524 0.065343738 0.89004123 -0.28543317 0.87364924 -0.27754745 0.11906241 0.086201489
7923887500 -0.063287891 0.10452097 0.6766175 -0.63706869 0.67379862 -0.62115693 0.13384633 -0.01924523
7932165625 -0.01401484 0.13263714 0.33894336 -0.85949069 0.34834942 -0.84994972 0.072690189 -0.09900663
7940443750 0.044297144 0.12444603 -0.055216148 -0.92016274 -0.04656028 -0.92147481 -0.015603711 -0.10936279
7948721875 0.082019687 0.092757419 -0.44035333 -0.81354928 -0.43746528 -0.81723392 -0.072747648 -0.062829815
7957000000 0.10256347 0.063052908 -0.75192803 -0.54941607 -0.75227451 -0.54950881 -0.068167269 -0.054995432
7965278125 0.12626521 0.031134361 -0.91730821 -0.17583391 -0.91671395 -0.17452459 -0.085026421 -0.01733331
7973556250 0.14358026 -0.020371696 -0.90635806 0.23340328 -0.904383 0.23538144 -0.087848984 0.02249836
7981834375 0.12863153 -0.087128468 -0.72255617 0.59918857 -0.71699995 0.60057068 -0.072365344 0.066758148
7990112500 0.071590394 -0.13476503 -0.40005839 0.8545441 -0.39145613 0.85157698 -0.027150825 0.10411406
7998390625 0.0041197818 -0.13357174 0.006401551 0.95077372 0.012299549 0.93897289 0.04270165 0.10722765
8006668750 -0.029279439 -0.10020292 0.41967523 0.858886 0.41483149 0.8420763 0.10564487 0.061043572
8014946875 -0.025098335 -0.084974766 0.75291049 0.59047091 0.73465657 0.58021879 0.12589797 -0.018192561
8023225000 -0.033595432 -0.11148465 0.92908233 0.20215401 0.90807331 0.20873722 0.093591027 -0.091083251
8031503125 -0.099251308 -0.1362406 0.9171803 -0.21852791 0.90764612 -0.19884486 0.031105373 -0.12824215
8039781250 -0.19917676 -0.091704048 0.72668421 -0.58577275 0.73324615 -0.56516576 -0.032374144 -0.12833531
8048059375 -0.25281718 0.036669757 0.40349105 -0.83228725 0.41875085 -0.82172805 -0.082852758 -0.10627759
8056337500 -0.20117582 0.18253542 0.012629511 -0.91970903 0.025598852 -0.91781217 -0.12301081 -0.072127298
8064615625 -0.066180959 0.25869656 -0.37227324 -0.83919317 -0.36507651 -0.83696055 -0.15390824 -0.022208152
8072893750 0.072647244 0.23284324 -0.68854773 -0.61069649 -0.68357283 -0.60402316 -0.16349657 0.047449622
8081171875 0.14830737 0.14415894 -0.88489407 -0.27027541 -0.87610012 -0.25978959 -0.13422886 0.12334555
8089450000 0.14052959 0.15439498 -0.90541446 0.14118439 -0.9056716 0.14184922 -0.061749037 0.17780398
8097728125 0.19704364 0.088806331 -0.76052624 0.50827479 -0.76216781 0.51259977 0.029802555 0.18545413
8106006250 0.2217989 -0.00061227678 -0.47589946 0.78206664 -0.47428599 0.79085255 0.11062084 0.1477008
8114284375 0.20041379 -0.093048446 -0.10055667 0.91164339 -0.090327606 0.92156255 0.16307612 0.08135315
8122562500 0.14157782 -0.15975092 0.2975038 0.87080944 0.31498772 0.87132013 0.18468748 0.0026672177
8130840625 0.072467342 -0.19191934 0.64335465 0.66322339 0.65813643 0.64993542 0.17646086 -0.082063317
8139118750 0.007377062 -0.20452243 0.86821067 0.32343513 0.87021762 0.30335999 0.13071187 -0.16458949
8147396875 -0.063326374 -0.20864098 0.92358583 -0.081912518 0.91313392 -0.095841207 0.042979006 -0.22365847
8155675000 -0.15158293 -0.18746658 0.79637045 -0.47178298 0.78309536 -0.47357038 -0.072480701 -0.23156628
8163953125 -0.23872142 -0.11476135 0.51345497 -0.76299626 0.50645095 -0.75973731 -0.17985722 -0.17556478
8172231250 -0.28062963 0.0089734653 0.13882591 -0.90308535 0.13569425 -0.90181494 -0.24182099 -0.072320558
8180509375 -0.246913 0.14293534 -0.25486425 -0.87366688 -0.2608445 -0.87376118 -0.24338323 0.04136667
8188787500 -0.14948253 0.23451199 -0.60063118 -0.68459862 -0.60845739 -0.68030167 -0.19721839 0.13535056
8197065625 -0.03246586 0.26206014 -0.83755469 -0.3654556 -0.84053093 -0.35619661 -0.12282475 0.1989653
8205343750 0.069191895 0.24183622 -0.9146623 0.029160932 -0.91093671 0.036862344 -0.030449444 0.23081048
8213621875 0.15120901 0.1963326 -0.81159401 0.41759187 -0.80704284 0.42020109 0.073137268 0.22317256
8221900000 0.21836413 0.12562703 -0.55187112 0.7195068 -0.55180019 0.72016251 0.16901013 0.1648497
8230178125 0.25731018 0.026999367 -0.19411325 0.88359618 -0.19754893 0.88635641 0.23162353 0.062569581
8238456250 0.24438798 -0.088205464 0.19697993 0.88297683 0.19580364 0.89226031 0.23006204 -0.060971811
8246734375 0.17254019 -0.1799254 0.55404234 0.71881258 0.56198877 0.73039335 0.16333739 -0.15935156
8255012500 0.075008951 -0.21489674 0.81099373 0.41745737 0.82855952 0.42170817 0.067041926 -0.20071186
8263290625 -0.0043279803 -0.20361954 0.91667593 0.030790213 0.93577743 0.02130577 -0.016328299 -0.19339247
8271568750 -0.05504737 -0.18485239 0.84543836 -0.36793193 0.85424691 -0.38879362 -0.074853361 -0.17054082
8279846875 -0.10927235 -0.17554837 0.60511053 -0.69816524 0.59984767 -0.72136533 -0.13071184 -0.14641753
8288125000 -0.18912923 -0.14338283 0.24315518 -0.88886154 0.22459175 -0.90467745 -0.19724302 -0.098046198
8296403125 -0.2621786 -0.049751606 -0.16059795 -0.89946449 -0.18526894 -0.90146738 -0.24640507 0.00011716242
8304681250 -0.26829723 0.090238474 -0.52255392 -0.74157596 -0.54222602 -0.72700411 -0.23010731 0.13162231
8312959375 -0.18643722 0.21129113 -0.78277475 -0.45323035 -0.78645408 -0.4314504 -0.13056228 0.23826739
8321237500 -0.056998692 0.25826532 -0.90386307 -0.083871111 -0.89243233 -0.069512226 0.017389134 0.26549345
8329515625 0.0568121 0.23092642 -0.86064541 0.31003532 -0.84771645 0.3087731 0.14941272 0.20063497
8337793750 0.12520424 0.17194611 -0.64820021 0.65385091 -0.646806 0.6442591 0.21132018 0.080659673
8346071875 0.16460375 0.1137991 -0.30219978 0.87065196 -0.3130244 0.86687309 0.19529825 -0.03369147
8354350000 0.19442606 0.050603222 0.099871688 0.91145968 0.10027011 0.91242158 0.16900939 -0.070818365
8362628125 0.20630966 -0.032016035 0.47757971 0.78017485 0.47998834 0.78406453 0.12033173 -0.13653156
8370906250 0.16841395 -0.12157308 0.76295787 0.5046438 0.76889831 0.50779372 0.047640018 -0.18234222
8379184375 0.083393708 -0.17110123 0.90767401 0.13413648 0.91496819 0.13305284 -0.048256204 -0.19085762
8387462500 0.0010089498 -0.15799309 0.88302469 -0.26680222 0.88848776 -0.27117217 -0.14153309 -0.14191626
8395740625 -0.034163285 -0.11745869 0.68736774 -0.62384355 0.69002634 -0.62646735 -0.1886308 -0.04424797
8404018750 -0.037517626 -0.10360265 0.35152045 -0.86296821 0.3585079 -0.86333787 -0.16595635 0.057142291
8412296875 -0.064023979 -0.11974007 -0.05741151 -0.92788142 -0.043232985 -0.93759286 -0.09402658 0.11331408
8420575000 -0.13449553 -0.11101737 -0.44839701 -0.80705392 -0.44225901 -0.83507007 -0.022017658 0.11236709
8428853125 -0.20040497 -0.035187591 -0.74281216 -0.53625786 -0.76504338 -0.56617689 0.01733996 0.083627522
8437131250 -0.19935203 0.080911979 -0.89648998 -0.1749977 -0.93882251 -0.17847088 0.031395584 0.061733399
8445409375 -0.12110899 0.16861427 -0.89175826 0.21903528 -0.9212718 0.24820997 0.047549065 0.051106773
8453687500 -0.017121376 0.18124579 -0.72084194 0.58238357 -0.71873635 0.61730456 0.074317671 0.028465042
8461965625 0.048638947 0.1381036 -0.40123078 0.84237885 -0.38258228 0.85844225 0.088827409 -0.021090267
8470243750 0.065817676 0.098323144 0.0035070959 0.93300414 0.018458322 0.93422079 0.062617518 -0.079838239
8478521875 0.07963603 0.086524948 0.40281326 0.83832455 0.41098118 0.83672214 -0.0021199202 -0.10711399
8486800000 0.11643802 0.066518411 0.7227115 0.5810585 0.72295713 0.58082908 -0.065780178 -0.078720346
8495078125 0.14756808 0.018660305 0.89975601 0.21492095 0.9013719 0.21936803 -0.096797496 -0.027371883
8503356250 0.14152275 -0.051723126 0.9034667 -0.18930312 0.91010481 -0.18252891 -0.089201763 0.026087303
8511634375 0.090733394 -0.1007699 0.73518586 -0.55632538 0.74987352 -0.55343688 -0.058671668 0.058662485
8519912500 0.035912149 -0.10036045 0.42728373 -0.81842917 0.44460502 -0.8261798 -0.026510099 0.071333133
8528190625 0.018435737 -0.079921596 0.03444225 -0.92326808 0.04519954 -0.9418596 0.0042389072 0.076541625
8536468750 0.025083069 -0.088797063 -0.36618778 -0.84782958 -0.36560184 -0.86924255 0.043058731 0.073531449
8544746875 0.0026447142 -0.12983352 -0.69248056 -0.60558814 -0.7017653 -0.62832451 0.087760404 0.045930658
8553025000 -0.072534174 -0.15123895 -0.87928802 -0.24966368 -0.90193069 -0.2690801 0.11375266 -0.015563729
8561303125 -0.161222 -0.10552432 -0.89770377 0.14475095 -0.9331432 0.14184394 0.093148261 -0.090864845
8569581250 -0.20014152 -0.0047933101 -0.75289965 0.50849873 -0.78314012 0.52954286 0.023417408 -0.13920073
8577859375 -0.16784222 0.091868371 -0.4702009 0.78300869 -0.47839645 0.8153441 -0.061276045 -0.1322743
8586137500 -0.099964224 0.14041796 -0.092099532 0.91400552 -0.081395656 0.93787038 -0.11874674 -0.079173341
8594415625 -0.041921426 0.15028389 0.31215128 0.86764187 0.3272925 0.88010836 -0.13451077 -0.014823648
8602693750 0.0013245144 0.15450789 0.65692031 0.64885914 0.67039484 0.65387684 -0.12360451 0.036400728
8610971875 0.054387353 0.15887938 0.86993307 0.30292648 0.88249195 0.30204818 -0.10511018 0.077278614
8619250000 0.12342123 0.13654442 0.91440922 -0.09888535 0.91503662 -0.099175081 -0.068249211 0.14527978
8627528125 0.17359895 0.073131032 0.78435713 -0.47964576 0.78465599 -0.47644541 0.0022961653 0.16484284
8635806250 0.18165137 -0.0053726695 0.50385153 -0.77028352 0.50773937 -0.76299703 0.081741162 0.15095727
8644084375 0.15591398 -0.065722555 0.12449069 -0.91353822 0.13692735 -0.90569133 0.15088582 0.095085502
8652362500 0.12585104 -0.10373317 -0.27960995 -0.8771894 -0.25867712 -0.87913573 0.18297422 0.0060958699
8660640625 0.099785239 -0.1439306 -0.62396759 -0.67028165 -0.60474449 -0.69014573 0.16256525 -0.087718271
8668918750 0.049496364 -0.19667481 -0.84333378 -0.33923772 -0.84282625 -0.37536412 0.097959347 -0.15606508
8677196875 -0.050169077 -0.22721015 -0.90023237 0.051231656 -0.93062913 0.018274285 0.012510184 -0.18199031
8685475000 -0.17257541 -0.18459855 -0.78737587 0.42851192 -0.83829045 0.42129219 -0.068440147 -0.16714114
8693753125 -0.24847193 -0.066002816 -0.52949852 0.72149473 -0.57442719 0.74661511 -0.13173769 -0.1243915
8702031250 -0.23318982 0.068948433 -0.17712997 0.87966472 -0.19326146 0.92269325 -0.17400163 -0.063113578
8710309375 -0.15005089 0.15137444 0.21214035 0.87877822 0.2243446 0.91233373 -0.19132344 0.01255539
8718587500 -0.064925253 0.16210118 0.57191741 0.71177179 0.59356087 0.72430694 -0.17511481 0.0943413
8726865625 -0.023965139 0.14426619 0.82907414 0.39809856 0.84308213 0.39631721 -0.12026851 0.165069
8735143750 -0.0085132737 0.15192285 0.92179215 -0.0014668932 0.92552245 -0.0040333723 -0.034558348 0.20327613
8743421875 0.036595855 0.18605673 0.82683444 -0.39950418 0.82745212 -0.39559346 0.060423207 0.19570601
8751700000 0.18057404 0.12881279 0.58490819 -0.69984221 0.58445525 -0.70032346 0.14785029 0.14297821
8759978125 0.22013234 0.045113403 0.22940794 -0.88387293 0.23129113 -0.87990648 0.19520205 0.05973554
8768256250 0.21706896 -0.049101815 -0.17098415 -0.89852947 -0.16327704 -0.89388353 0.20194285 -0.0355726
8776534375 0.17332244 -0.12808061 -0.54077125 -0.73932636 -0.52557832 -0.73987859 0.16502184 -0.12493069
8784812500 0.1069807 -0.17719351 -0.80749857 -0.43501407 -0.78890514 -0.44885212 0.08976841 -0.18802685
8793090625 0.034276452 -0.19797152 -0.91485673 -0.044150148 -0.90781701 -0.073717915 -0.0068093287 -0.20811997
8801368750 -0.039396219 -0.1962543 -0.84202164 0.3528744 -0.85797662 0.31942514 -0.099829599 -0.17931971
8809646875 -0.11204351 -0.16966586 -0.60701478 0.67730409 -0.64532375 0.65908235 -0.16513674 -0.11154176
8817925000 -0.17368695 -0.11328195 -0.25891632 0.86825609 -0.30265659 0.8774184 -0.18948355 -0.026524696
8826203125 -0.20732167 -0.031090954 0.13487139 0.89413756 0.1050398 0.92677957 -0.17503284 0.05477225
8834481250 -0.20033872 0.0593463 0.50077575 0.75062835 0.49531835 0.79307008 -0.13128215 0.11981097
8842759375 -0.15540682 0.13730291 0.77077854 0.46689162 0.78894204 0.50248027 -0.066231303 0.16212007
8851037500 -0.081972793 0.18832512 0.89561081 0.09743499 0.92715323 0.11430313 0.01321439 0.17460412
8859315625 0.0062642111 0.20241247 0.85478461 -0.29003483 0.88441306 -0.29340854 0.093664505 0.14896496
8867593750 0.09063857 0.17502497 0.65519673 -0.62651962 0.67242038 -0.64159197 0.15438978 0.085312143
8875871875 0.14812519 0.11322808 0.33114597 -0.85079849 0.33403257 -0.86518735 0.17539088 -0.0010255751
8884150000 0.1691798 0.074869454 -0.065860696 -0.91652262 -0.06599316 -0.91677749 0.14731291 -0.073498763
8892428125 0.17694321 0.0045058215 -0.4537977 -0.8068859 -0.44815555 -0.80067331 0.087989472 -0.12871949
8900706250 0.15960762 -0.055419374 -0.76246285 -0.53921425 -0.74407572 -0.53388172 0.019751366 -0.14697261
8908984375 0.13071029 -0.10408568 -0.92636573 -0.15816246 -0.89918739 -0.16897342 -0.041843671 -0.13833782
8917262500 0.089309081 -0.14915358 -0.90691286 0.2594853 -0.88675684 0.22662818 -0.095098592 -0.11043902
8925540625 0.022360742 -0.18341202 -0.70556366 0.6255517 -0.70965427 0.58184731 -0.13711248 -0.061522607
8933818750 -0.066644154 -0.1802621 -0.3677265 0.86703384 -0.39760295 0.83088207 -0.15400086 0.0088736899
8942096875 -0.14354444 -0.1238471 0.038139027 0.94001442 -0.0072120284 0.9230836 -0.12868214 0.083588526
8950375000 -0.17183624 -0.03672488 0.43626317 0.83421224 0.38613424 0.84161538 -0.063063592 0.13236409
8958653125 -0.14772135 0.037079688 0.75272489 0.5673492 0.7116769 0.60191572 0.017425222 0.13339673
8966931250 -0.1044836 0.071968496 0.9232043 0.18858461 0.9086886 0.24168408 0.078078911 0.090295151
8975209375 -0.075643219 0.081659868 0.91188234 -0.22540441 0.92901003 -0.17691813 0.099977665 0.028999228
8983487500 -0.060852356 0.096608736 0.72499192 -0.58916032 0.76122838 -0.56418222 0.089678846 -0.023693129
8991765625 -0.034640092 0.12365341 0.40503138 -0.83678579 0.43969768 -0.83636707 0.063841574 -0.060566239
9000043750 0.015365202 0.13934112 0.014227914 -0.92621344 0.03467194 -0.93955994 0.028399482 -0.08587411
9008321875 0.071281455 0.12429919 -0.37653464 -0.84440321 -0.37190783 -0.85739213 -0.019424424 -0.095383987
9016600000 0.11208078 0.085375249 -0.69745117 -0.60717666 -0.69763494 -0.60802972 -0.071131341 -0.076036997
9024878125 0.12388721 0.046522044 -0.89134133 -0.25649118 -0.8826856 -0.24931732 -0.10980105 -0.028314777
9033156250 0.13684842 0.015872562 -0.918001 0.14674431 -0.89850569 0.14620671 -0.10914623 0.041372258
9041434375 0.15539886 -0.032387674 -0.76963019 0.52460617 -0.75142795 0.50982106 -0.060906623 0.095173873
9049712500 0.14666569 -0.11005371 -0.474161 0.80282682 -0.46531132 0.78141695 0.0079643251 0.10299128
9057990625 0.078378424 -0.18299216 -0.087648749 0.92947274 -0.088541456 0.9053542 0.0566401 0.067698225
9066268750 -0.030848119 -0.1963502 0.31660253 0.88198948 0.30529952 0.85756671 0.067496516 0.023669172
9074546875 -0.11879685 -0.13555762 0.66726208 0.66685498 0.64134991 0.64718485 0.057976656 -0.0012310831
9082825000 -0.13732806 -0.048500985 0.89579302 0.31634352 0.85997158 0.31362331 0.057027411 -0.011750305
9091103125 -0.10514826 0.00023994992 0.94697082 -0.10436192 0.9151473 -0.085779332 0.066700004 -0.035132173
9099381250 -0.08527939 0.00024092129 0.80599612 -0.50509799 0.78946573 -0.47314909 0.058882263 -0.081836812
9107659375 -0.10912238 0.0037282354 0.50549501 -0.8002789 0.50828379 -0.76608223 0.0097308392 -0.12607875
9115937500 -0.13847569 0.056610871 0.11235315 -0.93324459 0.13285433 -0.90785468 -0.070380539 -0.12932135
9124215625 -0.11589557 0.13998072 -0.29495355 -0.88527989 -0.26677436 -0.87867332 -0.14078236 -0.07647869
9132493750 -0.034349844 0.19398646 -0.63882232 -0.67137098 -0.62011337 -0.682531 -0.16514993 0.009547703
9140771875 0.059961203 0.18635336 -0.8586821 -0.3356165 -0.85630333 -0.3481665 -0.13664538 0.089703076
9149050000 0.12278076 0.13782428 -0.91598994 0.058716845 -0.91689336 0.058649406 -0.076797239 0.13800369
9157328125 0.15669554 0.08030571 -0.80495536 0.44002286 -0.79842716 0.44372293 -0.0068024024 0.15699266
9165606250 0.17259184 0.028769737 -0.5417282 0.7409541 -0.52909774 0.73892337 0.062748104 0.14728743
9173884375 0.18536867 -0.02957589 -0.17534067 0.8976264 -0.16130587 0.88818628 0.12622021 0.10888198
9182162500 0.17613587 -0.11023059 0.21972923 0.88406074 0.23021923 0.86569941 0.17005281 0.040048234
9190440625 0.1151289 -0.19221978 0.56935048 0.71004003 0.56955677 0.6824407 0.17374548 -0.049117934
9198718750 0.006346554 -0.22902519 0.81778777 0.40790549 0.79840761 0.38028401 0.12734686 -0.13039854
9206996875 -0.10424944 -0.19491643 0.92189729 0.024180593 0.88595033 0.0119432 0.043623842 -0.17363432
9215275000 -0.16682991 -0.11271682 0.8515752 -0.37591958 0.81359386 -0.36450797 -0.045883223 -0.16558765
9223553125 -0.17545706 -0.03283634 0.6099807 -0.71154165 0.5850805 -0.68199342 -0.11187909 -0.11806224
9231831250 -0.16424157 0.020954613 0.2417634 -0.90806109 0.23722346 -0.87126744 -0.1454457 -0.055530317
9240109375 -0.15808867 0.068889216 -0.17408426 -0.9224385 -0.15948455 -0.8919251 -0.15530728 0.0077508604
9248387500 -0.13897608 0.13370283 -0.55294365 -0.75334775 -0.52764183 -0.74014866 -0.14629614 0.073189072
9256665625 -0.078093566 0.19873275 -0.81822795 -0.43975616 -0.79733992 -0.44363362 -0.1098469 0.13982803
9264943750 0.020865146 0.22332206 -0.92073673 -0.046958324 -0.91315222 -0.056308065 -0.036945734 0.18951568
9273221875 0.11672547 0.18833569 -0.84888458 0.34830239 -0.84868801 0.34349018 0.059499055 0.19548655
9281500000 0.17332868 0.11726091 -0.6160835 0.67431331 -0.61642128 0.67499602 0.12293921 0.14866664
9289778125 0.19205621 0.04180368 -0.26839533 0.86924344 -0.26586738 0.87224591 0.17501551 0.07040894
9298056250 0.1897302 -0.022286568 0.12858613 0.89522558 0.13488646 0.89905965 0.18133284 -0.017700046
9306334375 0.17784318 -0.087358356 0.49425203 0.74890482 0.50644892 0.74985981 0.14990489 -0.092091508
9314612500 0.13905847 -0.16054791 0.75784731 0.46555918 0.77290672 0.4570958 0.097051114 -0.1431063
9322890625 0.055578761 -0.21726517 0.87640399 0.10481009 0.88499194 0.085459955 0.031981356 -0.17203647
9331168750 -0.056828428 -0.2200572 0.83926332 -0.26852152 0.83406937 -0.29162428 -0.043819282 -0.17627873
9339446875 -0.15237685 -0.15735169 0.6531654 -0.59667635 0.63324386 -0.61355209 -0.12236774 -0.1441437
9347725000 -0.19189371 -0.059426714 0.34424439 -0.8232531 0.31623384 -0.82400519 -0.17873672 -0.071583413
9356003125 -0.17570744 0.026765333 -0.038305398 -0.89987415 -0.061790444 -0.88275558 -0.18874925 0.022190327
9364281250 -0.13659097 0.079100698 -0.42474118 -0.80459946 -0.43017986 -0.77691466 -0.14864998 0.10437259
9372559375 -0.10022634 0.11094993 -0.73651969 -0.5471676 -0.72306991 -0.52546871 -0.078100592 0.15054154
9380837500 -0.061300024 0.14093211 -0.90510654 -0.17471582 -0.88541466 -0.16862126 -0.0029972391 0.1573064
9389115625 -0.0047453837 0.1623002 -0.89335233 0.23645112 -0.87849498 0.2314835 0.06121181 0.13477014
9397393750 0.064074956 0.15383129 -0.7029528 0.5996241 -0.69513905 0.59197688 0.10968678 0.091457345
9405671875 0.11966985 0.11097699 -0.37424466 0.84390575 -0.37112904 0.83585054 0.13680273 0.031247804
9413950000 0.14467838 0.052239347 0.026840609 0.92145145 0.02675692 0.92199349 0.13359788 -0.037524112
9422228125 0.14138976 -0.0078640087 0.41983303 0.81696582 0.4214637 0.81833845 0.094334103 -0.094773032
9430506250 0.11917524 -0.051644135 0.72656137 0.55290121 0.73142797 0.55369771 0.032373395 -0.12087684
9438784375 0.092623532 -0.082332924 0.88741124 0.186323 0.89493132 0.18297817 -0.027271526 -0.10998966
9447062500 0.061672255 -0.10823633 0.87621903 -0.20909411 0.8813377 -0.21845829 -0.06521295 -0.076307043
9455340625 0.020098116 -0.12709461 0.69899607 -0.55813801 0.69822031 -0.57136244 -0.080371611 -0.038945273
9463618750 -0.031928588 -0.12926179 0.39490563 -0.79796594 0.38532642 -0.81012183 -0.082903512 -0.0063604559
9471896875 -0.083643682 -0.10654037 0.020441312 -0.88700795 0.0032849007 -0.89155746 -0.078190885 0.025801197
9480175000 -0.12083985 -0.060754877 -0.35457072 -0.81165493 -0.37217304 -0.80534405 -0.059869092 0.058532584
9488453125 -0.13209391 -0.0015845883 -0.66439021 -0.58803773 -0.67529452 -0.57268131 -0.022885503 0.081001215
9496731250 -0.11125254 0.05480136 -0.85505426 -0.25435957 -0.8544867 -0.23659565 0.024242671 0.078068972
9505009375 -0.064350754 0.088471681 -0.8896476 0.13338776 -0.88012528 0.14651409 0.061164711 0.046765994
9513287500 -0.013478377 0.084768414 -0.75341898 0.50606161 -0.740785 0.51162338 0.070822038 0.00077614363
9521565625 0.011284423 0.05432884 -0.46594444 0.78894538 -0.45368999 0.78639352 0.051917564 -0.038153235
9529843750 -0.00066203834 0.030529741 -0.077528693 0.91864276 -0.071566485 0.91169256 0.018288866 -0.056357671
9538121875 -0.023672003 0.044320721 0.3322891 0.86444402 0.33216873 0.85779542 -0.01512947 -0.0552212
9546400000 0.062765576 0.07505586 0.67471302 0.63652992 0.67564946 0.63720709 -0.048540484 -0.034533303
9554678125 0.086693525 0.054373622 0.88264036 0.27812093 0.88417178 0.28058097 -0.058295071 -0.0093828654
9562956250 0.10573328 0.021079931 0.91126603 -0.13171194 0.91620559 -0.12912811 -0.061232019 0.021370336
9571234375 0.10776861 -0.022252008 0.76115626 -0.5098632 0.76607609 -0.50823677 -0.045224357 0.05921562
9579512500 0.087536633 -0.061512422 0.46463609 -0.78546596 0.47066122 -0.78281122 0.0003658043 0.085684322
9587790625 0.055163678 -0.084521145 0.078070872 -0.90410882 0.091239311 -0.90199476 0.061362009 0.074211277
9596068750 0.024021691 -0.092494488 -0.31744248 -0.84269071 -0.29750091 -0.84987462 0.10294816 0.020285295
9604346875 -0.00279948 -0.095953479 -0.64176691 -0.61841363 -0.62612236 -0.64134318 0.098298252 -0.048683025
9612625000 -0.034632701 -0.09845306 -0.83660853 -0.28416449 -0.83592486 -0.31599724 0.053076413 -0.094712265
9620903125 -0.076213039 -0.089092918 -0.87409997 0.095707268 -0.89047039 0.066755407 -0.0013122953 -0.10167316
9629181250 -0.11694916 -0.055668563 -0.75082242 0.45718852 -0.77905095 0.43793339 -0.038034178 -0.084594496
9637459375 -0.13848138 -0.0011305655 -0.48524499 0.73456025 -0.5206821 0.72835857 -0.058690805 -0.067602418
9645737500 -0.13154532 0.058225345 -0.12464163 0.87285876 -0.16090231 0.88211477 -0.082496785 -0.053744275
9654015625 -0.10090149 0.10847597 0.26124558 0.8458578 0.23479135 0.86785364 -0.11391508 -0.023334414
9662293750 -0.054184902 0.14451717 0.59890574 0.65895742 0.59001601 0.68153846 -0.12973788 0.036654014
9670571875 0.0049134078 0.16403165 0.82631272 0.35067001 0.82926166 0.36256659 -0.10217742 0.10729006
9678850000 0.073823944 0.16126628 0.91609716 -0.024281947 0.91728967 -0.024561726 -0.032492336 0.15116155
9687128125 0.14699399 0.12045893 0.82788628 -0.40531412 0.82103348 -0.41484609 0.048796423 0.15007766
9695406250 0.18521667 0.037630789 0.57939178 -0.72442192 0.56298196 -0.72995597 0.11102831 0.10564926
9703684375 0.16704972 -0.047124438 0.20376544 -0.91086286 0.18927807 -0.90187621 0.13849458 0.046675112
9711962500 0.11908568 -0.093023032 -0.22148418 -0.9129172 -0.22115858 -0.88845319 0.14368413 -0.0064004837
9720240625 0.08484266 -0.10754069 -0.60451776 -0.72268999 -0.57802266 -0.69757712 0.14167254 -0.059444547
9728518750 0.069176763 -0.13266619 -0.85783744 -0.37953949 -0.81194758 -0.37837204 0.1215329 -0.12540545
9736796875 0.029262202 -0.18272439 -0.92747515 0.034002084 -0.88868421 0.0026042324 0.058768429 -0.19076394
9745075000 -0.065437734 -0.21461046 -0.80912608 0.4237588 -0.79801971 0.37748563 -0.049006 -0.21541597
9753353125 -0.18554226 -0.17396581 -0.54474586 0.71433812 -0.55857563 0.67443669 -0.16177127 -0.16709059
9761631250 -0.2628479 -0.055480339 -0.19559412 0.86514908 -0.22214803 0.84124941 -0.22559367 -0.059410643
9769909375 -0.25223336 0.086389482 0.17732723 0.86316681 0.14776665 0.85490745 -0.21580009 0.057807192
9778187500 -0.16836898 0.18628404 0.51911598 0.71523875 0.49204341 0.72064137 -0.15474328 0.13969676
9786465625 -0.064785011 0.22006446 0.77504289 0.43704191 0.75911725 0.45209301 -0.079314515 0.17877558
9794743750 0.01989745 0.2113675 0.89335132 0.070366383 0.88882047 0.084122606 -0.005721644 0.19141592
9803021875 0.088198774 0.18914163 0.8434003 -0.31517699 0.84313858 -0.30838144 0.071604833 0.18414736
9811300000 0.16004497 0.15325695 0.63857472 -0.64638072 0.63865638 -0.64642417 0.15395543 0.14169495
9819578125 0.21422747 0.078135267 0.3107194 -0.86085057 0.29994446 -0.86004621 0.21462034 0.058186013
9827856250 0.22768688 -0.020552229 -0.082848899 -0.92197293 -0.10009485 -0.90808272 0.220542 -0.062385798
9836134375 0.18894148 -0.11118726 -0.47600681 -0.80748707 -0.48188794 -0.77650696 0.14895551 -0.16682933
9844412500 0.11952289 -0.16346662 -0.78583509 -0.52553558 -0.76806557 -0.49397853 0.034966949 -0.20178404
9852690625 0.052288253 -0.17943899 -0.93898124 -0.13248448 -0.90655947 -0.11837621 -0.058354251 -0.16593078
9860968750 -0.0035041997 -0.18417034 -0.90302408 0.28508794 -0.87266034 0.28260019 -0.095848992 -0.10532711
9869246875 -0.069021083 -0.18649237 -0.69405204 0.64453465 -0.66524285 0.6342932 -0.097031623 -0.07017047
9877525000 -0.15719123 -0.15711948 -0.34919798 0.88139111 -0.31930691 0.85708976 -0.11273676 -0.063269816
9885803125 -0.23217115 -0.064924307 0.067560606 0.943726 0.082972921 0.89788502 -0.16138929 -0.0366535
9894081250 -0.23668095 0.067392483 0.46583673 0.81438392 0.44864908 0.76372778 -0.19988501 0.047719061
9902359375 -0.16052999 0.17303364 0.75812691 0.52979147 0.71694928 0.50175387 -0.16900156 0.16403881
9910637500 -0.051224526 0.20791745 0.90039331 0.16112754 0.85707915 0.16027969 -0.057472162 0.2437464
9918915625 0.036179412 0.18501961 0.88301593 -0.22626397 0.85054725 -0.21001716 0.086380832 0.2345411
9927193750 0.087926872 0.14519246 0.71123773 -0.57659233 0.69103235 -0.55103523 0.190056 0.13919009
9935471875 0.1254099 0.1070497 0.40352607 -0.8274402 0.39988783 -0.80053204 0.21054122 0.012440128
9943750000 0.15801832 0.056367636 0.013318014 -0.9179092 0.013446783 -0.91772437 0.15592119 -0.035947699
9952028125 0.17332228 -0.0077233529 -0.37282541 -0.84045678 -0.38805971 -0.84236592 0.11669672 -0.092627287
9960306250 0.151198 -0.084413476 -0.69429022 -0.61260843 -0.72060639 -0.59412044 0.067298569 -0.12893318
9968584375 0.08408162 -0.13572153 -0.89857405 -0.26736349 -0.90953177 -0.22173177 0.0062385583 -0.14894223
9976862500 0.0066993553 -0.13238339 -0.93974066 0.14217348 -0.91645962 0.19506854 -0.065726504 -0.13956816
9985140625 -0.03403357 -0.090767458 -0.79639268 0.53950608 -0.74105453 0.57177109 -0.12662467 -0.088564798
9993418750 -0.032651179 -0.061813515 -0.48853946 0.83764112 -0.41987592 0.83395696 -0.1457222 -0.010473138
10001696875 -0.034057826 -0.068501167 -0.076628193 0.97181404 -0.017612781 0.93066257 -0.11546765 0.057224721
10009975000 -0.073882788 -0.07543125 0.35457543 0.90944481 0.38259667 0.8411302 -0.061091218 0.085858278
10018253125 -0.1280521 -0.033512309 0.71260428 0.66377634 0.69878578 0.59237564 -0.017273897 0.079442501
10026531250 -0.1374651 0.051392671 0.92492497 0.28846991 0.8780489 0.23947738 0.0046654283 0.064175792
10034809375 -0.080131419 0.12126099 0.952003 -0.13572456 0.89488912 -0.15254107 0.018472254 0.055816147
10043087500 0.0021032423 0.12828517 0.79745191 -0.52722245 0.7461428 -0.51523829 0.038055059 0.045416526
10051365625 0.051342886 0.085229993 0.49236768 -0.81230175 0.45937386 -0.78173012 0.055279721 0.019567752
10059643750 0.052048218 0.043701865 0.098195955 -0.93847299 0.088568933 -0.90332413 0.050824508 -0.016602265
10067921875 0.039639406 0.034519363 -0.307861 -0.88366705 -0.30083913 -0.86190474 0.021558501 -0.039331324
10076200000 0.047965299 0.041182153 -0.64610004 -0.66542596 -0.64662147 -0.66536862 -0.011879701 -0.031963758
10084478125 0.063847698 0.028552566 -0.86367291 -0.33160344 -0.87647861 -0.32988778 -0.027456785 -0.0050118263
10092756250 0.068762258 -9.447724e-005 -0.92427528 0.062322058 -0.94138104 0.078229167 -0.010876022 0.019576201
10101034375 0.051787853 -0.023493644 -0.81454134 0.44571468 -0.82227027 0.47970298 0.016729113 0.015131251
10109312500 0.031094491 -0.024688976 -0.55361795 0.7517907 -0.53714931 0.79430062 0.024054669 -0.0097176777
10117590625 0.030365074 -0.015969081 -0.1863071 0.92149025 -0.13848799 0.95431763 0.0065492932 -0.02373589
10125868750 0.044396546 -0.025966866 0.22558935 0.9216857 0.29385418 0.91981912 -0.0076181395 -0.0127728
10134146875 0.042567931 -0.060431968 0.60424614 0.74243802 0.66290951 0.69576067 0.0039815838 0.0018933817
10142425000 0.0060330867 -0.091200575 0.87083197 0.41151816 0.89294398 0.33601582 0.028443594 -0.010514058
10150703125 -0.047692128 -0.088394627 0.96535063 -0.0059876852 0.94167387 -0.081255622 0.030039074 -0.050360136
10158981250 -0.086042643 -0.05396682 0.86819482 -0.4223547 0.80850112 -0.47157416 -0.0090212757 -0.083966978
10167259375 -0.097318515 -0.013434935 0.5989536 -0.75519568 0.52592611 -0.76309973 -0.06884332 -0.078163639
10175537500 -0.097156569 0.017788013 0.21130019 -0.93795288 0.15354787 -0.90488708 -0.11169592 -0.031301454
10183815625 -0.097397603 0.050240412 -0.21642494 -0.93111074 -0.23850793 -0.88093674 -0.11723527 0.031231333
10192093750 -0.085624628 0.09434855 -0.59170949 -0.73644298 -0.58378893 -0.69935364 -0.090948962 0.08354973
10200371875 -0.044586651 0.13701573 -0.83959746 -0.40601763 -0.82453156 -0.39228386 -0.047513954 0.11785942
10208650000 0.019155459 0.14997533 -0.91772735 -0.010998092 -0.91846734 -0.010246808 0.0073005562 0.1352369
10216928125 0.078865901 0.13188869 -0.82909089 0.37517306 -0.84279209 0.37999704 0.070617512 0.12998615
10225206250 0.1207731 0.090666607 -0.58828735 0.68528581 -0.60795534 0.70583695 0.13467936 0.090323195
10233484375 0.14297523 0.042284478 -0.2429298 0.86325037 -0.25282395 0.90551937 0.17271836 0.013382464
10241762500 0.15272181 -0.0094279554 0.14017065 0.87952149 0.1598193 0.93616706 0.15920734 -0.07714621
10250040625 0.14762707 -0.070787393 0.49246636 0.74005687 0.55136669 0.78343701 0.097613268 -0.14131327
10258318750 0.11144915 -0.13791378 0.75855869 0.46755788 0.8425898 0.4714334 0.020766843 -0.15765078
10266596875 0.035914451 -0.18573491 0.88950127 0.10498083 0.96801895 0.057587359 -0.037983656 -0.13999486
10274875000 -0.061306302 -0.18614437 0.853836 -0.28348067 0.89583963 -0.37220407 -0.076674588 -0.11723135
10283153125 -0.14397997 -0.1346193 0.65645218 -0.6214397 0.63888931 -0.72305501 -0.11659198 -0.095268413
10291431250 -0.18668151 -0.053340491 0.33305541 -0.84746516 0.25742671 -0.91769534 -0.16427585 -0.051834427
10299709375 -0.18775463 0.030013707 -0.063072965 -0.91739959 -0.15969236 -0.92401493 -0.19321628 0.028719082
10307987500 -0.15764189 0.10031272 -0.45923439 -0.80617064 -0.52628654 -0.75751692 -0.17108992 0.12760425
10316265625 -0.10669035 0.14996064 -0.76985598 -0.52481467 -0.7839669 -0.46306723 -0.092229918 0.20367853
10324543750 -0.046484862 0.17559451 -0.92119104 -0.13250059 -0.90023291 -0.096715398 0.016008021 0.22489484
10332821875 0.013004971 0.18143369 -0.88136309 0.28367469 -0.86046195 0.28606981 0.11460342 0.18914959
10341100000 0.12397139 0.1833868 -0.65942621 0.61955059 -0.65900445 0.6202758 0.17850471 0.11775019
10349378125 0.17326975 0.11383243 -0.32285976 0.84213811 -0.3385427 0.84743065 0.1989554 0.037630353
10357656250 0.19566573 0.044431604 0.075866058 0.89073575 0.056044299 0.91696644 0.20014383 -0.036513608
10365934375 0.2032844 -0.030242605 0.44645286 0.76051182 0.44462436 0.80809957 0.18240623 -0.12031379
10374212500 0.18212818 -0.11855401 0.7163946 0.49240094 0.74782485 0.54295719 0.11915593 -0.20838687
10382490625 0.110413 -0.19981894 0.84606701 0.14876035 0.91032356 0.17590439 -0.0015988006 -0.25803518
10390768750 -0.0042164456 -0.23225226 0.82672191 -0.20381828 0.90624499 -0.22449726 -0.14070459 -0.22603127
10399046875 -0.11481804 -0.19420153 0.67328727 -0.51237071 0.7364437 -0.58422571 -0.23465873 -0.11464638
10407325000 -0.17795007 -0.1080044 0.40910134 -0.74031228 0.4260971 -0.84421319 -0.24204746 0.024153527
10415603125 -0.18436678 -0.014971143 0.057692427 -0.85025257 0.01382647 -0.94914591 -0.17547408 0.12254137
10423881250 -0.15670864 0.052478585 -0.32983211 -0.79813951 -0.4093042 -0.8588075 -0.096762419 0.15482356
10432159375 -0.1277364 0.094799221 -0.66176075 -0.57463181 -0.7430253 -0.5879944 -0.045601062 0.15763442
10440437500 -0.09981586 0.13774899 -0.8557772 -0.22791338 -0.91825348 -0.20516476 -0.004394921 0.16923414
10448715625 -0.046237845 0.18314682 -0.87545317 0.16394733 -0.90717447 0.20589055 0.059897851 0.17841794
10456993750 0.041135922 0.19723468 -0.72607923 0.52535361 -0.72819346 0.56433314 0.14219151 0.14689124
10465271875 0.12744559 0.15335327 -0.43518505 0.79198837 -0.42431951 0.81189919 0.19867548 0.062864229
10473550000 0.1680426 0.070596136 -0.049969684 0.91079438 -0.049288128 0.91069263 0.17630367 -0.044826612
10481828125 0.15626739 -0.0042106207 0.35533327 0.84547687 0.33647695 0.85300398 0.1232504 -0.11688656
10490106250 0.12967764 -0.044475757 0.69082201 0.60169077 0.66945899 0.63834101 0.052273884 -0.13994859
10498384375 0.11738472 -0.077334419 0.87970388 0.23409818 0.88658249 0.29764384 0.0026414702 -0.12965345
10506662500 0.095051572 -0.13402013 0.8826828 -0.1736545 0.9382351 -0.11084862 -0.025032545 -0.12333868
10514940625 0.019253097 -0.19002073 0.70825487 -0.53203511 0.80674499 -0.50899988 -0.065089427 -0.12943067
10523218750 -0.099938281 -0.18241505 0.40339449 -0.77035582 0.50823033 -0.81290412 -0.13359059 -0.11101493
10531496875 -0.1905753 -0.086754128 0.041161347 -0.85268515 0.10477398 -0.95188683 -0.19327959 -0.03434898
10539775000 -0.1882747 0.04284985 -0.31083694 -0.78521377 -0.31277081 -0.89998728 -0.1884861 0.078390516
10548053125 -0.10501504 0.1229346 -0.60540098 -0.58870912 -0.66174042 -0.67980003 -0.10766967 0.16158532
10556331250 -0.013523068 0.1186357 -0.80344075 -0.28833053 -0.89019692 -0.33771923 -0.00011430514 0.1701576
10564609375 0.025107164 0.069526821 -0.86163992 0.079884395 -0.95522881 0.077729456 0.072861388 0.11552762
10572887500 0.01391684 0.038945735 -0.75211948 0.4446013 -0.82695955 0.48781845 0.087831058 0.04903812
10581165625 0.004406604 0.047266468 -0.49444184 0.72773063 -0.52745515 0.79273921 0.070765562 0.010693957
10589443750 0.026959624 0.057634395 -0.13984299 0.87706143 -0.13545646 0.92983317 0.057746615 -0.0046865172
10597721875 0.053985607 0.035236258 0.25094283 0.86567551 0.26600027 0.8924529 0.051519297 -0.021920616
10606000000 0.048770349 0.00076570042 0.61735064 0.69000274 0.61806548 0.69083154 0.031396609 -0.041398238
10614278125 0.016933445 -0.014282825 0.86526895 0.35476664 0.84920609 0.36230838 0.0030324184 -0.051168233
10622556250 -0.00092201447 0.013764692 0.93963856 -0.059940312 0.91916525 -0.029733749 -0.027078327 -0.031606052
10630834375 0.032835677 0.039322283 0.82234901 -0.46613887 0.82271719 -0.41134906 -0.024549102 0.0073335981
10639112500 0.081684142 0.0054881317 0.53752381 -0.78160769 0.57925898 -0.72299612 0.016712621 0.02138309
10647390625 0.071974702 -0.069120765 0.1374016 -0.93973821 0.21893187 -0.9132635 0.053002279 -0.01755224
10655668750 -0.005784905 -0.10355447 -0.29108432 -0.89843786 -0.20096289 -0.9273904 0.033373807 -0.080737062
10663946875 -0.077797435 -0.054438528 -0.64680398 -0.67045844 -0.58763403 -0.74933988 -0.040720161 -0.10469223
10672225000 -0.071948625 0.030437505 -0.85720748 -0.32119486 -0.85255998 -0.42100692 -0.11017287 -0.057773318
10680503125 0.0023062378 0.06066028 -0.90076834 0.071631558 -0.95028818 -0.016176546 -0.11696327 0.027752608
10688781250 0.059653446 0.0068892348 -0.77976865 0.43930152 -0.86941117 0.39384004 -0.057591658 0.079637133
10697059375 0.035873804 -0.070969015 -0.52020639 0.72246796 -0.61528349 0.73583126 0.005571187 0.061090168
10705337500 -0.04701883 -0.092083052 -0.16995648 0.86962849 -0.23018391 0.93128562 0.011752373 0.0095953941
10713615625 -0.11405816 -0.038116273 0.20588578 0.86045331 0.19847544 0.93041229 -0.033204459 -0.0063827694
10721893750 -0.11907355 0.04082828 0.54533738 0.70159644 0.57167965 0.74367362 -0.067602128 0.039314114
10730171875 -0.080193266 0.091828711 0.79540831 0.41621253 0.82276136 0.42616123 -0.041274637 0.1050361
10738450000 -0.040508065 0.11273244 0.91817236 0.044227991 0.9188391 0.044258364 0.056511328 0.097823568
10746728125 -0.005784573 0.12655181 0.86063153 -0.35399726 0.84927809 -0.34366399 0.10143577 0.055293813
10755006250 0.044772845 0.14198327 0.63346642 -0.69528872 0.62692648 -0.66831023 0.10785851 0.00094605779
10763284375 0.12245397 0.12567055 0.27687639 -0.90761203 0.28878441 -0.87275791 0.09118399 -0.034756478
10771562500 0.18834399 0.047390893 -0.14166009 -0.94681102 -0.10853719 -0.91744876 0.079491548 -0.055621851
10779840625 0.18563792 -0.068166032 -0.54130733 -0.79904026 -0.49183473 -0.78774965 0.073650792 -0.088654853
10788118750 0.10573005 -0.15073794 -0.84019279 -0.48846877 -0.78428918 -0.50353414 0.042688563 -0.14050591
10796396875 0.0067239557 -0.15556152 -0.9725557 -0.073213138 -0.92538953 -0.11971556 -0.036901001 -0.17700495
10804675000 -0.047814991 -0.11255028 -0.90665382 0.36057496 -0.88891792 0.2876035 -0.14313178 -0.15246812
10812953125 -0.058915436 -0.083372496 -0.65289247 0.71815491 -0.68232197 0.64170319 -0.21853577 -0.057754092
10821231250 -0.078550152 -0.084394522 -0.26954028 0.91965818 -0.34134915 0.87503654 -0.22015734 0.064417325
10829509375 -0.13432139 -0.071086414 0.15051441 0.92850214 0.069955438 0.93813527 -0.15530348 0.15651911
10837787500 -0.19050421 -0.0026331213 0.51770312 0.76265484 0.46790957 0.81401056 -0.068315923 0.19434053
10846065625 -0.19252108 0.1060017 0.77443326 0.4717207 0.76988786 0.52849305 0.0081293583 0.19521408
10854343750 -0.12415994 0.1993434 0.89297056 0.11157539 0.9152739 0.14432399 0.076184146 0.1808162
10862621875 -0.019323735 0.23599301 0.85863197 -0.26422682 0.87955379 -0.25805643 0.14699167 0.14441636
10870900000 0.059922691 0.20887662 0.67669064 -0.59794647 0.67706501 -0.59763801 0.20398913 0.068333425
10879178125 0.13151933 0.16166784 0.37081867 -0.83088636 0.36105299 -0.82136118 0.21647269 -0.033477951
10887456250 0.18243018 0.1029627 -0.010276222 -0.91880482 -0.015219785 -0.89405721 0.17097966 -0.12970817
10895734375 0.22043654 0.026552897 -0.40073222 -0.83797908 -0.38880605 -0.80757219 0.085411079 -0.18287428
10904012500 0.22745144 -0.075051717 -0.72455525 -0.59414369 -0.6958611 -0.57128304 0.00053123169 -0.1844753
10912290625 0.17798559 -0.18086852 -0.91514575 -0.23101994 -0.87821788 -0.22255272 -0.059551071 -0.16124254
10920568750 0.07471849 -0.24924202 -0.93281883 0.182666 -0.89253533 0.17521857 -0.10565169 -0.1382881
10928846875 -0.048273042 -0.25444147 -0.76988494 0.56779844 -0.73206371 0.5416916 -0.16133697 -0.10937108
10937125000 -0.15214017 -0.20201118 -0.45286962 0.85017353 -0.42899469 0.8012991 -0.22238073 -0.043842465
10945403125 -0.21716644 -0.11557879 -0.038239233 0.96504927 -0.04695683 0.90576863 -0.2476733 0.069072679
10953681250 -0.24106006 -0.015426739 0.38580647 0.88194406 0.34173897 0.83892936 -0.19823314 0.19358766
10961959375 -0.2236432 0.084703863 0.7239086 0.62220126 0.66799825 0.61699331 -0.080631025 0.27098694
10970237500 -0.16467424 0.16986431 0.91046083 0.24861217 0.87153071 0.27421778 0.056243956 0.26791629
10978515625 -0.072779141 0.21968199 0.91961241 -0.16125587 0.90866417 -0.1285414 0.15875337 0.19941345
10986793750 0.029178878 0.22042333 0.75731391 -0.53192669 0.76376742 -0.50944173 0.20795292 0.10708883
10995071875 0.11435575 0.17756096 0.45559373 -0.79385173 0.4653762 -0.78808558 0.21825616 0.017943159
11003350000 0.16946101 0.10864574 0.080141313 -0.90282518 0.07924547 -0.90296447 0.1939324 -0.073946819
11011628125 0.19633944 0.035920359 -0.30104423 -0.84703851 -0.30909199 -0.8418144 0.14698222 -0.15203802
11019906250 0.19880499 -0.049901988 -0.62251413 -0.6433863 -0.62975031 -0.62770689 0.060248822 -0.20309068
11028184375 0.15690704 -0.1386877 -0.83259636 -0.32809871 -0.83025753 -0.30596614 -0.042686321 -0.19789699
11036462500 0.067055821 -0.19476549 -0.89747888 0.046592377 -0.88382733 0.067802787 -0.11799561 -0.13778967
11044740625 -0.036729392 -0.18716882 -0.80288708 0.41778272 -0.77999443 0.43434513 -0.13787489 -0.060992677
11053018750 -0.10557256 -0.12610634 -0.56127256 0.72393888 -0.52695221 0.73031145 -0.11834601 -0.011112588
11061296875 -0.11902944 -0.05786423 -0.20641878 0.90736336 -0.16665091 0.89259869 -0.1029349 0.0039191935
11069575000 -0.10599651 -0.019962214 0.20700514 0.92495042 0.2338292 0.88273937 -0.11458215 0.020268254
11077853125 -0.10613031 -0.0017387086 0.6004706 0.75156349 0.59365839 0.69985884 -0.12672479 0.072029024
11086131250 -0.11910719 0.035832271 0.87587094 0.41120222 0.84069139 0.37809107 -0.092122272 0.14631824
11094409375 -0.10298841 0.10082364 0.96592516 -0.018702229 0.92513508 -0.022718593 0.00034183144 0.18811177
11102687500 -0.033470012 0.14908293 0.85400826 -0.43601015 0.8258307 -0.42136484 0.10394607 0.15539408
11110965625 0.056003556 0.13593844 0.57499635 -0.75681287 0.56223661 -0.73698735 0.15649047 0.067158915
11119243750 0.1078884 0.069557905 0.18900168 -0.92379242 0.18788637 -0.90706909 0.14173296 -0.017131897
11127521875 0.10302839 0.0017636578 -0.22649251 -0.90756238 -0.22311127 -0.89797282 0.09756875 -0.057060361
11135800000 0.071726285 -0.032497093 -0.58795261 -0.70926893 -0.58837205 -0.70896435 0.074891247 -0.066555396
11144078125 0.044618994 -0.047017787 -0.82502025 -0.38458437 -0.82932943 -0.38372281 0.056850675 -0.083673865
11152356250 0.021008911 -0.056909494 -0.89738542 0.0002362292 -0.90565658 0.0058945836 0.024256185 -0.10810433
11160634375 -0.012779802 -0.060231846 -0.80666691 0.37275696 -0.81294698 0.38497284 -0.032028172 -0.10962742
11168912500 -0.049900968 -0.035057995 -0.57555246 0.67104971 -0.57522905 0.68992519 -0.079233527 -0.066262759
11177190625 -0.056220654 0.017282566 -0.24229622 0.84865397 -0.22944243 0.86997366 -0.075115159 -0.0027875674
11185468750 -0.013973673 0.056040101 0.13435549 0.87324572 0.16165511 0.88614398 -0.02325397 0.023556156
11193746875 0.044306412 0.039995041 0.48849151 0.73959541 0.52229154 0.73485869 0.018243579 -0.014678227
11202025000 0.059394639 -0.019948473 0.75959736 0.47189605 0.78549808 0.44647601 -0.0079494985 -0.075311564
11210303125 0.012713021 -0.060584068 0.90071332 0.11022754 0.90720528 0.073428378 -0.093066998 -0.081023693
11218581250 -0.042012405 -0.034108281 0.87758565 -0.29362381 0.86080492 -0.32707819 -0.1586321 0.0029987586
11226859375 -0.032712188 0.025275787 0.66845459 -0.66123754 0.6370542 -0.67318934 -0.1272891 0.12083118
11235137500 0.033010144 0.030776264 0.30324331 -0.89572871 0.28008831 -0.88311446 -0.011564204 0.17219375
11243415625 0.063594125 -0.045092601 -0.12784709 -0.93044984 -0.12867479 -0.91384619 0.094742335 0.1184624
11251693750 -0.0069237007 -0.12112059 -0.51663792 -0.77066511 -0.50789863 -0.77079785 0.11410847 0.020620186
11259971875 -0.13024879 -0.097041152 -0.79013056 -0.46508443 -0.7951923 -0.47713146 0.063094191 -0.030119438
11268250000 -0.097399719 0.051116843 -0.9147085 -0.075311691 -0.91479313 -0.075075537 0.11270531 0.039437387
11276528125 -0.049525537 0.11190343 -0.84777212 0.32552609 -0.84888828 0.32361445 0.13666598 0.00088911137
11284806250 0.025890863 0.11160412 -0.61623883 0.65455484 -0.62060308 0.64800501 0.14279068 -0.067489527
11293084375 0.061374564 0.063627109 -0.26910359 0.8459031 -0.28492168 0.83825904 0.098192789 -0.1421432
11301362500 0.045753665 0.034160368 0.11880353 0.8671326 0.090179548 0.87320405 0.0085932864 -0.17496784
11309640625 0.040448472 0.055042908 0.47111413 0.72365206 0.44434059 0.75731564 -0.076999933 -0.14269255
11317918750 0.095591798 0.072474085 0.72364199 0.45027635 0.72745425 0.50420415 -0.11227608 -0.077367619
11326196875 0.17379509 0.014729152 0.83537787 0.10193989 0.87964916 0.14476268 -0.10223059 -0.034816355
11334475000 0.18655217 -0.11316527 0.79418552 -0.25271249 0.857728 -0.25042012 -0.10048518 -0.031731561
11342753125 0.092676945 -0.22799456 0.61624455 -0.55445993 0.66338611 -0.59433371 -0.14324754 -0.021953506
11351031250 -0.060592931 -0.24943207 0.33686566 -0.76122755 0.34398243 -0.81496191 -0.19619247 0.052726272
11359309375 -0.18474424 -0.16911744 -0.0074644922 -0.84472942 -0.033247828 -0.87990046 -0.17775948 0.18456829
11367587500 -0.22685175 -0.048288066 -0.37199861 -0.78071523 -0.40083349 -0.78479528 -0.052377809 0.28703415
11375865625 -0.20531236 0.048718281 -0.68887341 -0.55463421 -0.69780403 -0.54471421 0.12256973 0.27664724
11384143750 -0.16786787 0.11426304 -0.87579829 -0.1955656 -0.87110269 -0.19738626 0.24235366 0.1548782
11392421875 -0.12181563 0.17649944 -0.87543112 0.21455464 -0.8811413 0.19902985 0.24929269 0.0068102423
11400700000 -0.037692536 0.23062064 -0.68904155 0.57396019 -0.68886226 0.57462585 0.23566251 -0.015337694
11408978125 0.081027687 0.22921093 -0.36859423 0.81538242 -0.36617136 0.81158143 0.20942886 -0.10169965
11417256250 0.18003483 0.1553943 0.02249659 0.89277244 0.02104192 0.87873572 0.16283412 -0.18274553
11425534375 0.21133409 0.047200751 0.41025847 0.79234558 0.38940057 0.77266383 0.07470376 -0.25715461
11433812500 0.18472156 -0.034314107 0.71494907 0.5291627 0.66862333 0.52790534 -0.063179247 -0.28284243
11442090625 0.15413846 -0.07589101 0.86629814 0.15552035 0.81680179 0.19865246 -0.20660605 -0.21890585
11450368750 0.14244188 -0.11986211 0.82969016 -0.23594646 0.82044816 -0.15360911 -0.28571782 -0.079149239
11458646875 0.10844515 -0.1964484 0.63163084 -0.55445474 0.68803543 -0.47597647 -0.26575121 0.06928315
11466925000 0.0042492789 -0.26542634 0.33358085 -0.74974889 0.43584612 -0.72822255 -0.17737705 0.15961388
11475203125 -0.15013306 -0.2543745 -0.0012852403 -0.80710429 0.088293947 -0.86135536 -0.088555932 0.17614244
11483481250 -0.27590343 -0.13790584 -0.32680449 -0.73425984 -0.30036184 -0.82791919 -0.043355629 0.16456926
11491759375 -0.30060026 0.032565918 -0.6001578 -0.54234385 -0.63723594 -0.6139738 -0.020601051 0.17896886
11500037500 -0.22153233 0.16943251 -0.78119534 -0.25337061 -0.83780408 -0.27246752 0.037434291 0.21709864
11508315625 -0.10236018 0.22210318 -0.83359319 0.096737415 -0.86661774 0.11397418 0.15024346 0.21785742
11516593750 -0.0093981363 0.21274486 -0.73266721 0.45202857 -0.73286629 0.46843198 0.2666828 0.13159227
11524871875 0.051871415 0.19381456 -0.47545686 0.74092251 -0.46363658 0.73599619 0.31113327 -0.02627138
11533150000 0.15139386 0.19229387 -0.10705611 0.88772577 -0.10660315 0.88722384 0.2042332 -0.15080807
11541428125 0.2292996 0.11187784 0.2904931 0.85508913 0.29042104 0.8460384 0.10769212 -0.21090102
11549706250 0.25830778 -0.012607648 0.63726866 0.65093613 0.62973756 0.63058215 0.015901405 -0.21914184
11557984375 0.207488 -0.13525636 0.86430144 0.31620938 0.83429283 0.29056469 -0.057074931 -0.20749287
11566262500 0.10096703 -0.1981145 0.92825758 -0.092329822 0.8647567 -0.09809728 -0.13376242 -0.18527214
11574540625 0.001330622 -0.18732685 0.80147046 -0.49818814 0.72801638 -0.44990265 -0.21696848 -0.12525693
11582818750 -0.051492497 -0.14766745 0.49667853 -0.80591816 0.46498191 -0.70293421 -0.26885608 -0.011591122
11591096875 -0.079773709 -0.12573272 0.083102107 -0.93594283 0.13075662 -0.82471275 -0.24575001 0.12546349
11599375000 -0.12806621 -0.11109834 -0.33015937 -0.86093116 -0.21775092 -0.80394918 -0.14581317 0.22399633
11607653125 -0.19397932 -0.054933149 -0.65335846 -0.6214205 -0.53340453 -0.64739782 -0.016458211 0.24366769
11615931250 -0.2217077 0.057327144 -0.83706534 -0.28390846 -0.76504034 -0.37167865 0.08178807 0.19391425
11624209375 -0.16656743 0.17899816 -0.86785448 0.085895263 -0.86555213 -0.014010229 0.12348195 0.12424149
11632487500 -0.041814338 0.24256337 -0.75065887 0.43070629 -0.80035985 0.364968 0.13204367 0.07501173
11640765625 0.091642357 0.21685417 -0.50942177 0.69868189 -0.57014024 0.68290359 0.1444831 0.041212104
11649043750 0.17638348 0.12469237 -0.18076451 0.85085201 -0.21858259 0.87035501 0.16206647 -0.0088708736
11657321875 0.1920293 0.014914232 0.18663201 0.86177123 0.18242314 0.88421094 0.15187974 -0.08114627
11665600000 0.14255285 -0.022764536 0.55229062 0.72338575 0.55317837 0.72383159 0.092527352 -0.14339331
11673878125 0.11260136 -0.083677463 0.81695467 0.42916718 0.81504649 0.41219375 0.015438188 -0.15290861
11682156250 0.051433269 -0.12575862 0.93552184 0.042186797 0.91287786 0.015002369 -0.03518077 -0.1241064
11690434375 -0.026519818 -0.12411762 0.87691057 -0.36927027 0.82298762 -0.38502833 -0.051720902 -0.098949336
11698712500 -0.082566261 -0.075762853 0.64059287 -0.72309291 0.5667479 -0.69866318 -0.069655716 -0.098074749
11706990625 -0.091567785 -0.013973361 0.26171163 -0.94227195 0.20627677 -0.86268574 -0.11862608 -0.091420069
11715268750 -0.068640463 0.023267951 -0.18186444 -0.96800518 -0.17795776 -0.85683584 -0.17622019 -0.035962127
11723546875 -0.049933314 0.034869295 -0.59045011 -0.78889573 -0.51633644 -0.69502836 -0.18657999 0.065004475
11731825000 -0.044767812 0.050193578 -0.87405747 -0.4458091 -0.75473589 -0.41225213 -0.12171104 0.15517458
11740103125 -0.024674281 0.081099302 -0.97124851 -0.018656552 -0.8562693 -0.060954522 -0.01607606 0.17722806
11748381250 0.030044898 0.097722828 -0.87250394 0.39922854 -0.80712926 0.30299374 0.063227482 0.12884003
11756659375 0.094146729 0.065196067 -0.60917312 0.72447526 -0.61214483 0.61986136 0.07879892 0.062284954
11764937500 0.11896314 -0.011129817 -0.24196869 0.90195394 -0.29480639 0.83222502 0.055389248 0.033360541
11773215625 0.083334252 -0.085033812 0.15742756 0.90878117 0.094252676 0.88817567 0.048907142 0.044215187
11781493750 0.011409167 -0.11456174 0.51613098 0.75473177 0.47408175 0.76690751 0.082354717 0.048397064
11789771875 -0.054995399 -0.096091986 0.77895123 0.4723528 0.76478553 0.48789832 0.12206333 0.008507452
11798050000 -0.095506772 -0.053608287 0.90706813 0.11052836 0.90734386 0.11037116 0.1262289 -0.066232212
11806328125 -0.11574682 -0.0030458146 0.87761331 -0.27631229 0.86940384 -0.29922068 0.079030998 -0.11106941
11814606250 -0.11506247 0.055184882 0.68833911 -0.62195998 0.64820737 -0.65346885 0.028989635 -0.11846722
11822884375 -0.084334664 0.11492835 0.36877415 -0.86281884 0.28983879 -0.8696332 0.0012000415 -0.11601005
11831162500 -0.018700596 0.15393557 -0.029330971 -0.94935495 -0.12323807 -0.89659345 -0.02668505 -0.13308458
11839440625 0.061136484 0.14844896 -0.43578163 -0.86038309 -0.49336651 -0.73951066 -0.09350349 -0.14950977
11847718750 0.12086174 0.10238828 -0.77658367 -0.59946424 -0.74734318 -0.44631779 -0.1908547 -0.11047681
11855996875 0.1470166 0.044887438 -0.9755581 -0.19992673 -0.84803641 -0.086852022 -0.25485298 0.0051267887
11864275000 0.15806231 -0.0072837849 -0.96925551 0.25629792 -0.79494148 0.26737264 -0.22798713 0.14800097
11872553125 0.16583809 -0.070835471 -0.74922103 0.65829933 -0.61066431 0.56480628 -0.11819168 0.24143682
11880831250 0.14196424 -0.16217221 -0.37680504 0.9079566 -0.32773137 0.76616281 0.010702136 0.24782586
11889109375 0.047332022 -0.24793792 0.052312389 0.9626295 0.01763285 0.84306228 0.097184375 0.19407059
11897387500 -0.10701014 -0.25855988 0.44943926 0.83122301 0.37701219 0.76856315 0.13306881 0.13640311
11905665625 -0.24352516 -0.16119023 0.74453264 0.55435109 0.67880607 0.54038763 0.1572565 0.10057105
11913943750 -0.28620788 -0.001491045 0.89486057 0.18885279 0.85337973 0.19571933 0.19881342 0.057389975
11922221875 -0.22821748 0.13390547 0.88295484 -0.19851547 0.85941327 -0.19190121 0.2321222 -0.028480241
11930500000 -0.16441724 0.1766056 0.70414603 -0.54844618 0.70433664 -0.54877812 0.20788865 -0.14236176
11938778125 -0.086873889 0.21533965 0.40939078 -0.78757793 0.40004802 -0.80579853 0.12124809 -0.22785237
11947056250 -0.011968615 0.24521121 0.043091383 -0.8808831 0.0071141287 -0.90703583 0.0045323493 -0.25239235
11955334375 0.094503649 0.26106837 -0.32526693 -0.81207615 -0.39885825 -0.81928784 -0.094153956 -0.2212373
11963612500 0.22773837 0.21418658 -0.62319988 -0.60151297 -0.71931964 -0.55148751 -0.16050379 -0.17243461
11971890625 0.32921863 0.079266623 -0.81020975 -0.29880407 -0.87449747 -0.17093837 -0.22225109 -0.11961431
11980168750 0.33206934 -0.10509005 -0.8706829 0.050055314 -0.83996439 0.22202899 -0.28719544 -0.02992817
11988446875 0.22242035 -0.2565656 -0.79515064 0.41088057 -0.6474942 0.54321939 -0.30520552 0.11745339
11996725000 0.055895973 -0.30675933 -0.5647999 0.73269475 -0.35494706 0.74366218 -0.222216 0.27187845
12005003125 -0.078846335 -0.25940245 -0.19185819 0.93251503 -0.024173317 0.81052828 -0.054082479 0.35032806
12013281250 -0.14494851 -0.18532816 0.25259537 0.93308038 0.30100703 0.75199348 0.12326913 0.31321383
12021559375 -0.18590963 -0.13318925 0.64778715 0.71828282 0.58658481 0.57721508 0.23010473 0.19110282
12029837500 -0.24289943 -0.069319136 0.88954926 0.3467564 0.79530716 0.28991249 0.23906952 0.061747096
12038115625 -0.27950433 0.050401174 0.93164724 -0.080699541 0.86546111 -0.083662249 0.19602351 -0.006496883
12046393750 -0.23149516 0.1942277 0.78758115 -0.4659197 0.75222594 -0.46271363 0.18217391 -0.023316039
12054671875 -0.10101239 0.28288719 0.50323486 -0.74455953 0.47324112 -0.74830198 0.21696505 -0.071227975
12062950000 0.041412625 0.27487794 0.13578607 -0.87222546 0.13488354 -0.87196243 0.13172634 -0.25571695
12071228125 0.13814491 0.21483269 -0.25089139 -0.83817375 -0.25992426 -0.85243577 0.012630921 -0.31211969
12079506250 0.19391021 0.14905411 -0.5800212 -0.63639832 -0.60687995 -0.65893948 -0.14626633 -0.29636493
12087784375 0.24454345 0.081881091 -0.77673686 -0.32017192 -0.83667511 -0.3378635 -0.27715725 -0.18318762
12096062500 0.28543702 -0.023527045 -0.8140325 0.028718816 -0.91034937 0.05219882 -0.31224576 -0.016566079
12104340625 0.26483449 -0.16744578 -0.71667087 0.34019074 -0.81018889 0.44608921 -0.24616425 0.11819644
12112618750 0.14847459 -0.29191661 -0.52411711 0.58619457 -0.53607434 0.76645154 -0.14257225 0.16753875
12120896875 -0.033122528 -0.32156649 -0.25596178 0.75345832 -0.13531797 0.92573375 -0.079268776 0.15586935
12129175000 -0.19284554 -0.22919939 0.073318996 0.8141939 0.28565493 0.87392259 -0.065352671 0.15900049
12137453125 -0.24633817 -0.070886917 0.42378134 0.7313931 0.61897081 0.64581865 -0.033905983 0.20831074
12145731250 -0.19588566 0.049292315 0.72105277 0.49118313 0.81090546 0.32048851 0.064874724 0.2476472
12154009375 -0.1272569 0.088945866 0.88894695 0.12414674 0.85798895 -0.038823161 0.19769506 0.20640765
12162287500 -0.097968318 0.10273337 0.86592615 -0.2966665 0.76455575 -0.38318396 0.28364062 0.078609146
12170565625 -0.072979011 0.14611949 0.64120483 -0.66319293 0.54370695 -0.66423339 0.27262941 -0.073518768
12178843750 0.0027150449 0.18900762 0.27083576 -0.87735647 0.22401401 -0.83835572 0.18511057 -0.17670803
12187121875 0.1081339 0.16715477 -0.14470185 -0.89829844 -0.14883734 -0.86832213 0.083610974 -0.20993699
12195400000 0.16938724 0.077955544 -0.51699752 -0.73752159 -0.51662618 -0.73777306 0.015136777 -0.20820972
12203678125 0.16399619 -0.019503415 -0.78322381 -0.43547752 -0.79622084 -0.45142892 -0.056670163 -0.19516158
12211956250 0.11001667 -0.072898954 -0.88974321 -0.046858944 -0.92258704 -0.062476996 -0.12881762 -0.16523209
12220234375 0.06681218 -0.080157079 -0.81067407 0.34648052 -0.86386275 0.34720597 -0.19525295 -0.098440684
12228512500 0.051535472 -0.090107724 -0.56933087 0.65342599 -0.63192874 0.69121832 -0.21877737 0.0053045508
12236790625 0.019997122 -0.12417684 -0.2306004 0.81948227 -0.26920784 0.90181017 -0.17506124 0.10315653
12245068750 -0.059146512 -0.13764635 0.13695835 0.82709527 0.15448903 0.93108261 -0.091820024 0.14513181
12253346875 -0.14481875 -0.07816159 0.46567777 0.68472379 0.54453737 0.76627547 -0.028533576 0.13016938
12261625000 -0.16499753 0.037773993 0.70036465 0.42430508 0.81797075 0.44891003 -0.010321042 0.10917395
12269903125 -0.093873806 0.13594083 0.80898911 0.099793233 0.92348206 0.049394652 -0.0017111816 0.12090293
12278181250 0.021221822 0.15221706 0.78620988 -0.24113284 0.84494191 -0.3484765 0.042019382 0.14296792
12286459375 0.10398713 0.088056877 0.62659007 -0.55634773 0.60698199 -0.66516602 0.11257344 0.12658954
12294737500 0.11466652 0.0013327532 0.33870107 -0.78844297 0.27066541 -0.84695131 0.16291302 0.062314644
12303015625 0.076521978 -0.051519405 -0.039195187 -0.87508357 -0.10216176 -0.87951934 0.16375744 -0.0164329
12311293750 0.037821233 -0.066343293 -0.42509019 -0.78056628 -0.45913202 -0.76362866 0.12776086 -0.070513062
12319571875 0.010289405 -0.075511336 -0.73345315 -0.5175938 -0.74615651 -0.50553876 0.090313151 -0.092561141
12327850000 -0.031851437 -0.084792279 -0.90026051 -0.14308822 -0.90055621 -0.14281945 0.070611127 -0.12095001
12336128125 -0.087021507 -0.058126457 -0.87135601 0.27023944 -0.88441026 0.25632554 0.040320035 -0.14187877
12344406250 -0.11567859 0.0099317441 -0.65901947 0.62550312 -0.69680506 0.61878049 -0.010622934 -0.17360139
12352684375 -0.087414391 0.08192151 -0.31466013 0.84607208 -0.36362526 0.86971557 -0.099426292 -0.17841773
12360962500 -0.023832725 0.11013386 0.088289782 0.89166909 0.056192044 0.94686198 -0.19133741 -0.1179916
12369240625 0.023993639 0.094504267 0.46825033 0.75695282 0.46625978 0.82665384 -0.22765973 -0.0068848808
12377518750 0.041433018 0.078554444 0.7444225 0.46708757 0.77845699 0.5411886 -0.19004551 0.094006687
12385796875 0.06425339 0.082280703 0.85567564 0.091939464 0.93648142 0.14833879 -0.11996475 0.14104378
12394075000 0.11805658 0.07236176 0.79183334 -0.27490133 0.90511745 -0.27694494 -0.06683366 0.14738624
12402353125 0.17597118 0.0086442241 0.59328347 -0.56675148 0.68337899 -0.64350277 -0.037607055 0.15533765
12410631250 0.18103752 -0.10290339 0.30698329 -0.75147474 0.32616347 -0.86154026 0.0012411103 0.18186367
12418909375 0.10253974 -0.20602204 -0.026214149 -0.81210917 -0.071393386 -0.89541078 0.07738886 0.19850154
12427187500 -0.03198003 -0.23803572 -0.36234382 -0.73483008 -0.42756218 -0.76793808 0.17462727 0.16330254
12435465625 -0.15382873 -0.1823967 -0.64308864 -0.52481294 -0.69567996 -0.52188605 0.2436299 0.069930993
12443743750 -0.21682023 -0.080532335 -0.81744212 -0.20985709 -0.84949231 -0.19217999 0.25289944 -0.048024718
12452021875 -0.22734392 0.021445468 -0.84518772 0.16102424 -0.85947591 0.17781253 0.20799477 -0.14976382
12460300000 -0.22114061 0.10717136 -0.71275657 0.52650553 -0.71339083 0.5267086 0.15438545 -0.21676652
12468578125 -0.16304879 0.20521374 -0.41500634 0.79220986 -0.43028492 0.78979295 0.061867241 -0.26049671
12476856250 -0.052341033 0.27619573 -0.027506605 0.89664721 -0.052812587 0.90977842 -0.043546848 -0.28260133
12485134375 0.092761979 0.27763397 0.36598688 0.82017571 0.34751874 0.84940481 -0.17394419 -0.26544806
12493412500 0.21455181 0.19952108 0.68902969 0.58113527 0.68063784 0.61845607 -0.30477068 -0.17447656
12501690625 0.27218679 0.079477698 0.8770237 0.22017282 0.88033783 0.26981381 -0.37758169 -0.0088728769
12509968750 0.27157697 -0.034562789 0.88005406 -0.19203244 0.91545439 -0.13128524 -0.34477237 0.17992291
12518246875 0.24161783 -0.12909932 0.69322741 -0.55450302 0.77710176 -0.5156588 -0.21555164 0.31427279
12526525000 0.18986791 -0.22117546 0.37229443 -0.78225803 0.47737184 -0.80722797 -0.054501656 0.35310268
12534803125 0.091048345 -0.30641469 0.0046491162 -0.84382999 0.074434161 -0.93267268 0.074833959 0.32154369
12543081250 -0.063982815 -0.33935153 -0.33793074 -0.75294179 -0.33681178 -0.86234689 0.16748831 0.26918009
12551359375 -0.22926387 -0.27604592 -0.60598725 -0.54048449 -0.6659801 -0.6218468 0.25063697 0.20400201
12559637500 -0.33298641 -0.1279722 -0.76758432 -0.24887973 -0.85080141 -0.27390698 0.32247877 0.10175233
12567915625 -0.3394495 0.043145616 -0.80702996 0.082098089 -0.87009174 0.10672486 0.34674975 -0.040270999
12576193750 -0.27053428 0.1769938 -0.71432537 0.41034642 -0.73762327 0.44839236 0.29773811 -0.18477732
12584471875 -0.17157854 0.26015413 -0.48781681 0.68372935 -0.48780462 0.70563823 0.18859708 -0.28830162
12592750000 -0.060781438 0.31723586 -0.15577015 0.85059768 -0.15573521 0.85078835 0.054299254 -0.33347338
12601028125 0.076315857 0.33369118 0.22450151 0.84962982 0.21257932 0.84641147 -0.07929077 -0.31650147
12609306250 0.23012213 0.28209519 0.57272112 0.68315166 0.55395883 0.68428856 -0.18981215 -0.26662114
12617584375 0.34799969 0.14338683 0.82236785 0.38105145 0.7949639 0.38936403 -0.29251876 -0.18920802
12625862500 0.36966708 -0.045139965 0.92483199 -0.010099917 0.89007169 0.020188468 -0.3791014 -0.056321803
12634140625 0.28390059 -0.20395134 0.84278363 -0.4199869 0.82541478 -0.35860461 -0.39447293 0.13556737
12642418750 0.14886402 -0.27732572 0.57833225 -0.75797749 0.60584724 -0.68490535 -0.29160342 0.32620221
12650696875 0.031881295 -0.28312415 0.18172014 -0.9402287 0.2573761 -0.89240474 -0.089114055 0.42594308
12658975000 -0.060827795 -0.27298409 -0.25331819 -0.91951883 -0.1578204 -0.93005848 0.12263384 0.38980201
12667253125 -0.16854215 -0.24897651 -0.6254456 -0.70395136 -0.55800116 -0.77664626 0.25450519 0.2598632
12675531250 -0.28492033 -0.16205513 -0.8498103 -0.35596317 -0.8509233 -0.44970384 0.28914168 0.12311738
12683809375 -0.34440884 -0.0022792993 -0.8968702 0.032511953 -0.95716494 -0.019103905 0.28027022 0.02533387
12692087500 -0.30018127 0.17126869 -0.79071105 0.38857064 -0.84704316 0.4005841 0.26884922 -0.054296643
12700365625 -0.17032774 0.28567117 -0.5637539 0.66975039 -0.572559 0.70412451 0.24380796 -0.14611758
12708643750 -0.015341793 0.309201 -0.24332276 0.84561831 -0.22271158 0.8498593 0.17236486 -0.23825857
12716921875 0.10761026 0.26212958 0.13005824 0.87662435 0.1315961 0.85215259 0.054315832 -0.28901321
12725200000 0.18106125 0.19063582 0.4748421 0.74147671 0.47548839 0.74171674 -0.077618212 -0.27598792
12733478125 0.2390316 0.11278971 0.74268895 0.47971672 0.73951793 0.48668978 -0.16892885 -0.19255622
12741756250 0.28059357 0.0072022346 0.87982476 0.13182925 0.88560611 0.13937767 -0.19511087 -0.10528965
12750034375 0.26748866 -0.13464957 0.86637902 -0.24689712 0.87507623 -0.2503078 -0.19992889 -0.051273357
12758312500 0.15971215 -0.26279366 0.69395888 -0.59692425 0.69335568 -0.60808867 -0.22686774 -0.0017990916
12766590625 -0.017044801 -0.29464644 0.37988946 -0.84748083 0.3657963 -0.85457253 -0.25427622 0.096649982
12774868750 -0.16284858 -0.20275825 -0.018266421 -0.93971354 -0.039162628 -0.92980921 -0.21085833 0.23885112
12783146875 -0.19851139 -0.063657448 -0.42247844 -0.85338122 -0.4306201 -0.82399362 -0.063482791 0.34540078
12791425000 -0.15497032 0.023816479 -0.76488292 -0.59949136 -0.74222928 -0.56890857 0.13501795 0.33584717
12799703125 -0.11767107 0.053694792 -0.96900642 -0.20046581 -0.92663735 -0.20258923 0.28124836 0.20394079
12807981250 -0.10490415 0.088618949 -0.95857531 0.26362029 -0.93806344 0.22526009 0.30730158 0.027116373
12816259375 -0.065552525 0.14734526 -0.722067 0.65874046 -0.74524486 0.62388283 0.22991988 -0.093358003
12824537500 0.02823684 0.17870191 -0.3507317 0.88229108 -0.38833252 0.88663119 0.14318518 -0.11848741
12832815625 0.13225636 0.13026583 0.052752707 0.92636037 0.040798873 0.95584607 0.11450174 -0.11185928
12841093750 0.17134899 0.021549847 0.42998573 0.81212687 0.44481432 0.83187222 0.10766049 -0.14285047
12849371875 0.12527084 -0.069656365 0.73043132 0.55346328 0.74702835 0.55202937 0.059728015 -0.19345625
12857650000 0.079299532 -0.097963482 0.88462567 0.18340041 0.88478476 0.18317625 -0.032633368 -0.17781822
12865928125 0.023637461 -0.096353874 0.87786508 -0.20762721 0.87579376 -0.2025879 -0.10829306 -0.14186589
12874206250 -0.00060505769 -0.09635888 0.70823085 -0.55870438 0.71382332 -0.54895896 -0.13903196 -0.075330198
12882484375 -0.046784107 -0.12062792 0.40651762 -0.80821681 0.42360938 -0.80775917 -0.12766457 -0.032884348
12890762500 -0.14975485 -0.10343703 0.020607071 -0.90463227 0.034283489 -0.92397904 -0.12904316 -0.031525079
12899040625 -0.23565751 0.021461396 -0.36646745 -0.81722534 -0.37712517 -0.84621972 -0.18116951 -0.01839474
12907318750 -0.19553164 0.20437443 -0.66295093 -0.57867593 -0.69899046 -0.58819854 -0.24160069 0.068549648
12915596875 -0.017347347 0.31341937 -0.83163285 -0.2581186 -0.86354417 -0.23381132 -0.22437221 0.21608227
12923875000 0.19467431 0.26351002 -0.87349129 0.095940493 -0.87501925 0.13554244 -0.096275494 0.33642563
12932153125 0.3097986 0.080915414 -0.77732641 0.45951068 -0.75201857 0.4835057 0.091037855 0.34921911
12940431250 0.2679441 -0.11241656 -0.51948863 0.77313226 -0.49332583 0.77159512 0.2409523 0.24600932
12948709375 0.13369611 -0.20347103 -0.12046269 0.9446407 -0.11000641 0.93210036 0.28981239 0.09441568
12956987500 0.024560297 -0.1935073 0.32384694 0.90114552 0.32103339 0.89326215 0.25661224 -0.019610813
12965265625 -0.028935213 -0.17106763 0.68993938 0.65210515 0.68542296 0.65664738 0.21490362 -0.07882303
12973543750 -0.087167315 -0.16729683 0.89189172 0.26921183 0.89931136 0.28178489 0.19141281 -0.13545449
12981821875 -0.17483993 -0.12998503 0.89629155 -0.14601208 0.92117912 -0.14315532 0.14400886 -0.21726221
12990100000 -0.23590903 -0.024551468 0.72664148 -0.50171512 0.72707725 -0.50239408 0.034954797 -0.2712636
12998378125 -0.21945207 0.095348611 0.43708894 -0.74668795 0.44320008 -0.74734277 -0.096000999 -0.26913786
13006656250 -0.1511052 0.172911 0.080944024 -0.84707916 0.093674809 -0.85579973 -0.20235813 -0.19874229
13014934375 -0.083585791 0.20773463 -0.28321862 -0.78771132 -0.27119255 -0.81332922 -0.25302005 -0.1014825
13023212500 -0.023758724 0.24263965 -0.58237237 -0.57743216 -0.58965129 -0.62034792 -0.26701388 -0.017821966
13031490625 0.076459862 0.28161228 -0.7505843 -0.26338413 -0.79582143 -0.30596286 -0.28009385 0.059798021
13039768750 0.23388898 0.25897953 -0.76687896 0.070139997 -0.84339869 0.063612603 -0.28389156 0.16926868
13048046875 0.37990731 0.11920251 -0.6607967 0.35981363 -0.73107952 0.40925008 -0.22581431 0.30941236
13056325000 0.41647565 -0.11116997 -0.47026494 0.58649272 -0.49113941 0.67188889 -0.073415145 0.42018807
13064603125 0.29446006 -0.33161485 -0.20992941 0.74044365 -0.17040016 0.81581855 0.13727416 0.43009636
13072881250 0.056039445 -0.42774117 0.11227369 0.79371268 0.1848471 0.82135099 0.32615501 0.31649595
13081159375 -0.17375548 -0.35074663 0.46014613 0.70276701 0.52188182 0.67996955 0.41858619 0.12346251
13089437500 -0.27461565 -0.17697637 0.75693548 0.44430456 0.78193605 0.40008804 0.39886704 -0.067159444
13097715625 -0.2535837 -0.046209246 0.90516007 0.0455111 0.89642328 0.0091233682 0.31186351 -0.20497794
13105993750 -0.23241828 -0.00019390318 0.82769036 -0.39202133 0.80236781 -0.40106839 0.20195885 -0.29338613
13114271875 -0.26956588 0.062022563 0.53516924 -0.72488391 0.52428257 -0.702178 0.072437964 -0.34844247
13122550000 -0.21037862 0.282608 0.17528212 -0.83109599 0.17481463 -0.83143234 -0.093556978 -0.36555016
13130828125 -0.064319812 0.36281091 -0.19933908 -0.80818588 -0.18545537 -0.81192094 -0.24850439 -0.30258006
13139106250 0.11120013 0.35482654 -0.51722354 -0.63373202 -0.49673793 -0.65456986 -0.36414689 -0.1644474
13147384375 0.25110376 0.25844595 -0.72938377 -0.34901589 -0.71751422 -0.39393839 -0.39626986 0.014556081
13155662500 0.3144733 0.12026727 -0.79831958 -0.0050074365 -0.82021588 -0.067554981 -0.33879939 0.1767164
13163940625 0.31311858 -0.0058990805 -0.71638942 0.33029237 -0.78645211 0.28127998 -0.22680598 0.28016362
13172218750 0.28299332 -0.10758422 -0.50445944 0.59340286 -0.60692412 0.59805524 -0.1081914 0.32340711
13180496875 0.23417377 -0.20653662 -0.20762168 0.74258208 -0.2929959 0.81578594 -0.0014429092 0.33650127
13188775000 0.13828932 -0.30374506 0.1191207 0.75581342 0.095523976 0.86790019 0.11211228 0.33555117
13197053125 -0.020404378 -0.35251454 0.41736558 0.63522512 0.46302044 0.73560816 0.24797052 0.29256508
13205331250 -0.19884469 -0.30287221 0.63963854 0.40939456 0.72704381 0.46212682 0.37286922 0.17200874
13213609375 -0.32258463 -0.15890697 0.75909811 0.11678181 0.85036933 0.1130892 0.42431119 -0.014976771
13221887500 -0.34711799 0.021869628 0.75960296 -0.21231255 0.82129043 -0.25655332 0.3670187 -0.20805368
13230165625 -0.28262302 0.17324045 0.61690933 -0.53284669 0.63905102 -0.58827692 0.22309317 -0.33915168
13238443750 -0.17296642 0.26702684 0.3275713 -0.77185416 0.32117745 -0.81293124 0.049621925 -0.37904423
13246721875 -0.049638692 0.31106886 -0.054141629 -0.84972316 -0.067985274 -0.86829919 -0.10501587 -0.34571803
13255000000 0.084500395 0.31247374 -0.43241608 -0.74134797 -0.4333306 -0.7415204 -0.22828411 -0.26554796
13263278125 0.21809962 0.24935977 -0.716308 -0.47117022 -0.6988135 -0.47710943 -0.31573954 -0.14122106
13271556250 0.30827582 0.11976339 -0.84821641 -0.10697022 -0.82181734 -0.13876966 -0.34393448 0.011138387
13279834375 0.31372151 -0.038984273 -0.80553782 0.27502167 -0.79942435 0.20990764 -0.29820183 0.16022803
13288112500 0.23874293 -0.16551109 -0.60058153 0.59641552 -0.64559186 0.51876003 -0.18997709 0.26167661
13296390625 0.12879421 -0.22855029 -0.27869695 0.79384649 -0.38083097 0.74874806 -0.062976979 0.29054272
13304668750 0.02127284 -0.24117425 0.094939172 0.82984746 -0.030353187 0.85588932 0.03368767 0.26360288
13312946875 -0.079004169 -0.21986046 0.44051445 0.6977331 0.34638894 0.79847354 0.089098841 0.2300951
13321225000 -0.17028837 -0.15807001 0.6855123 0.43267 0.66563481 0.57291794 0.14328638 0.21494217
13329503125 -0.22520849 -0.0517933 0.78929257 0.10414559 0.84857738 0.22855017 0.22962376 0.18219261
13337781250 -0.21365935 0.071517929 0.75516748 -0.22258022 0.86628717 -0.15642054 0.31768012 0.080604702
13346059375 -0.13628928 0.1643713 0.60540223 -0.51139092 0.72056442 -0.51302916 0.33173326 -0.084840819
13354337500 -0.0309736 0.19393612 0.35125801 -0.72903746 0.4359099 -0.77950323 0.23337983 -0.23419385
13362615625 0.057142187 0.16604327 0.012086932 -0.82928568 0.054989278 -0.90122563 0.068439856 -0.28352934
13370893750 0.10861053 0.11478609 -0.35033932 -0.77138263 -0.34908271 -0.84006131 -0.062268052 -0.2250241
13379171875 0.13643225 0.062502153 -0.65837419 -0.55796295 -0.68683803 -0.6005652 -0.10390948 -0.13835043
13387450000 0.15599759 0.00086226955 -0.86711812 -0.2262658 -0.86660624 -0.2263201 -0.15792634 -0.1375553
13395728125 0.13911524 -0.076813571 -0.89098203 0.17628512 -0.86705315 0.17184834 -0.18574511 -0.084430985
13404006250 0.071285784 -0.13967583 -0.72898436 0.55579811 -0.69714332 0.51885229 -0.21584684 -0.019446708
13412284375 -0.025607834 -0.14499159 -0.4109588 0.82449305 -0.4060016 0.75444293 -0.21753629 0.073332556
13420562500 -0.098279305 -0.089044541 -0.0077972752 0.92124546 -0.050982777 0.84694058 -0.1614798 0.16141203
13428840625 -0.11882116 -0.013159654 0.39662185 0.83277375 0.30649987 0.78542238 -0.06608928 0.19629884
13437118750 -0.10447568 0.049422063 0.72539008 0.57422906 0.60560107 0.58666295 0.011923498 0.16812174
13445396875 -0.073114693 0.10434094 0.90124822 0.18673399 0.80215281 0.27999803 0.034176044 0.12279477
13453675000 -0.0086723175 0.1532943 0.87131822 -0.23014359 0.85258746 -0.090856969 0.025469109 0.11735415
13461953125 0.096692473 0.159155 0.66528183 -0.56455833 0.73200613 -0.4532375 0.049364965 0.15124802
13470231250 0.20089915 0.084259719 0.36312419 -0.76831424 0.46337533 -0.72101909 0.13166521 0.1632368
13478509375 0.23482488 -0.057852767 0.022902645 -0.84045136 0.1160937 -0.84648716 0.22874269 0.10207292
13486787500 0.15937418 -0.19664973 -0.32261676 -0.78162783 -0.24992703 -0.82360113 0.27257892 -0.024312017
13495065625 0.008897461 -0.24596256 -0.62609982 -0.58548969 -0.5875358 -0.6526596 0.22973911 -0.15649571
13503343750 -0.12021197 -0.1831298 -0.82569164 -0.27320698 -0.8328051 -0.33655605 0.12820518 -0.23304796
13511621875 -0.15695588 -0.081524774 -0.87908202 0.10384401 -0.90619773 0.075734682 0.024940306 -0.24989252
13519900000 -0.1809541 -0.096665494 -0.74586493 0.47999358 -0.74620181 0.48056784 -0.062205728 -0.24179138
13528178125 -0.21701463 -0.01910229 -0.47161949 0.76686144 -0.44764206 0.74863911 -0.15349239 -0.21543907
13536456250 -0.24022682 0.081995711 -0.089015357 0.90166956 -0.075090796 0.84900981 -0.24761072 -0.15530086
13544734375 -0.2110077 0.22438869 0.30928072 0.84803188 0.28842857 0.78111088 -0.3196604 -0.0408445
13553012500 -0.074639991 0.35513687 0.63606101 0.63275796 0.57789844 0.57338798 -0.32380107 0.11130331
13561290625 0.14415637 0.37712076 0.84460133 0.30828142 0.74763429 0.27735788 -0.24459995 0.24481738
13569568750 0.33914864 0.25094196 0.90434361 -0.078969344 0.78687006 -0.048724607 -0.11662376 0.31358314
13577846875 0.4141365 0.037409585 0.79155481 -0.46601591 0.70415878 -0.36445379 0.008085019 0.31521726
13586125000 0.35575169 -0.15637177 0.51223087 -0.77079654 0.49687347 -0.63671303 0.10383326 0.2816661
13594403125 0.23398922 -0.26383013 0.12090293 -0.91701186 0.17452015 -0.79847044 0.18284059 0.23963243
13602681250 0.11986791 -0.30978405 -0.29082611 -0.86994696 -0.18693927 -0.79244411 0.26670587 0.17924851
13610959375 0.0050288397 -0.33781898 -0.63187909 -0.64655209 -0.50049037 -0.63689375 0.34430915 0.070892349
13619237500 -0.13550991 -0.32948184 -0.83218074 -0.30547717 -0.72460383 -0.37235337 0.36938378 -0.09059158
13627515625 -0.27699578 -0.24813399 -0.86301142 0.073802419 -0.82721168 -0.0295566 0.30066919 -0.26537284
13635793750 -0.36590824 -0.098627612 -0.7386781 0.41424033 -0.76821727 0.33936402 0.13979924 -0.38355309
13644071875 -0.37104753 0.074626237 -0.50087923 0.66791058 -0.54130101 0.64969385 -0.053498991 -0.39795345
13652350000 -0.30347109 0.22597335 -0.18478826 0.81562078 -0.18417954 0.81578916 -0.2068014 -0.34706089
13660628125 -0.19703612 0.32872087 0.17156085 0.82373559 0.19782583 0.81072837 -0.32411483 -0.23322298
13668906250 -0.066878773 0.40705934 0.50673395 0.67030394 0.53410965 0.62222731 -0.40070888 -0.10161552
13677184375 0.11494621 0.44813254 0.73029226 0.3832444 0.72301042 0.30613214 -0.43954527 0.064211495
13685462500 0.33905941 0.39135379 0.80101955 0.051739134 0.74173152 -0.021932991 -0.40074232 0.25967118
13693740625 0.52822715 0.19389175 0.74831063 -0.25760573 0.64666516 -0.29299366 -0.25622639 0.4299939
13702018750 0.57790208 -0.10674278 0.60538894 -0.52973413 0.48800537 -0.50461364 -0.030912101 0.5051645
13710296875 0.43016866 -0.39419878 0.36673233 -0.75881779 0.26931661 -0.66743177 0.20286858 0.44859511
13718575000 0.13635714 -0.52444971 0.015703674 -0.89674705 -0.021472801 -0.75310516 0.36129564 0.28037661
13726853125 -0.13868713 -0.43817121 -0.41122076 -0.85405844 -0.35492548 -0.70218545 0.39468545 0.079769336
13735131250 -0.2479935 -0.24958149 -0.79034406 -0.57855642 -0.64553839 -0.48802119 0.33600578 -0.065166727
13743409375 -0.22827983 -0.1349929 -0.97415262 -0.13378826 -0.80596691 -0.15695241 0.27073279 -0.1396153
13751687500 -0.23838118 -0.11319042 -0.90558004 0.33282468 -0.80276799 0.21386653 0.23192133 -0.21044463
13759965625 -0.32555613 -0.053490277 -0.62864316 0.68478221 -0.63215411 0.55003422 0.16206227 -0.31487134
13768243750 -0.38404071 0.11580343 -0.24856183 0.84707147 -0.32585201 0.77452457 0.007403967 -0.39844412
13776521875 -0.31296816 0.3288345 0.12371684 0.82547468 0.046915736 0.83570665 -0.19928741 -0.3777329
13784800000 -0.023016268 0.39717615 0.39532486 0.72615081 0.39534104 0.72585678 -0.35880861 -0.23014249
13793078125 0.14594397 0.3635616 0.64376569 0.49903795 0.66429865 0.48036936 -0.41843733 -0.041654255
13801356250 0.27262366 0.26764971 0.78800315 0.19991507 0.80272251 0.14533453 -0.38425303 0.13300592
13809634375 0.34931841 0.14293176 0.80859292 -0.13611907 0.77832377 -0.21495652 -0.29684153 0.26076618
13817912500 0.38368827 -0.00033369433 0.68867385 -0.46381462 0.59771425 -0.52015078 -0.18282798 0.34949726
13826190625 0.36390424 -0.16273607 0.43571872 -0.71641183 0.31623891 -0.70652401 -0.041292101 0.39996347
13834468750 0.26125306 -0.32008243 0.098019145 -0.83787161 0.0015938237 -0.76182741 0.12265929 0.38945052
13842746875 0.072146915 -0.41291493 -0.25993523 -0.81240964 -0.30504447 -0.69770056 0.27217442 0.29758307
13851025000 -0.14950259 -0.38036427 -0.58644539 -0.64420831 -0.57014501 -0.51893294 0.35304546 0.1407036
13859303125 -0.30578387 -0.22623986 -0.83030707 -0.34267691 -0.74818105 -0.24019308 0.33816719 -0.020507025
13867581250 -0.33742949 -0.031921569 -0.92158663 0.062822923 -0.79650432 0.10006806 0.26005113 -0.12534264
13875859375 -0.27168423 0.11460593 -0.80210471 0.48039907 -0.69296187 0.4419848 0.183286 -0.16955672
13884137500 -0.17742239 0.19180907 -0.49449113 0.78818256 -0.43916401 0.71641952 0.13386545 -0.20338745
13892415625 -0.08807423 0.2318224 -0.091642961 0.9120912 -0.075841233 0.84887332 0.071383156 -0.26240018
13900693750 0.010108097 0.25143528 0.3108767 0.84881294 0.30884194 0.79657823 -0.056260761 -0.30869442
13908971875 0.12421469 0.22640245 0.64225763 0.62100226 0.62434787 0.58147913 -0.22734046 -0.26379347
13917250000 0.21183388 0.13444617 0.82861423 0.26826391 0.82832247 0.26787773 -0.29224011 -0.072310045
13925528125 0.24326342 0.014883648 0.84497595 -0.11127259 0.86448884 -0.12414102 -0.29115361 0.069711179
13933806250 0.20473714 -0.10135315 0.70574188 -0.44795111 0.72406644 -0.49282283 -0.21324995 0.17623998
13942084375 0.11590155 -0.17263784 0.45144346 -0.69192058 0.43370223 -0.76349443 -0.11374301 0.20799145
13950362500 0.014584471 -0.18683642 0.1222508 -0.81655318 0.049241379 -0.87606597 -0.054474354 0.19271748
13958640625 -0.07246659 -0.15445104 -0.23497158 -0.79389817 -0.34229401 -0.79831249 -0.034091204 0.19496407
13966918750 -0.13165122 -0.089415409 -0.55016899 -0.61863637 -0.64421892 -0.55554128 0.0069563859 0.23235269
13975196875 -0.15269794 -0.0033059677 -0.75930023 -0.32829818 -0.79978329 -0.22122817 0.10381279 0.25171915
13983475000 -0.12363826 0.084876083 -0.83080649 0.019754278 -0.80389553 0.12735195 0.21925375 0.1979392
13991753125 -0.044372231 0.14211211 -0.75506026 0.3718107 -0.67739093 0.44035441 0.2862879 0.074928999
14000031250 0.055171646 0.13695514 -0.53315848 0.67170542 -0.4410727 0.68235803 0.26862466 -0.06149194
14008309375 0.12535825 0.071421951 -0.19098116 0.85141993 -0.11957029 0.81662583 0.1889583 -0.15071236
14016587500 0.13858201 -0.014003274 0.20751043 0.8611142 0.24252932 0.80470991 0.1027251 -0.17999986
14024865625 0.10949689 -0.081000634 0.57555062 0.68623877 0.57440865 0.63192505 0.041379739 -0.18274327
14033143750 0.064070344 -0.12529974 0.82655787 0.35694861 0.80234677 0.32391673 -0.010963712 -0.19063038
14041421875 0.0038448288 -0.15769142 0.89632225 -0.053379402 0.87253243 -0.059834719 -0.082715482 -0.19350731
14049700000 -0.065458253 -0.15312664 0.76807982 -0.44273156 0.76863307 -0.44273806 -0.17619841 -0.15625338
14057978125 -0.15317941 -0.10020118 0.48593754 -0.72759217 0.49636158 -0.74218792 -0.23440291 -0.080832519
14066256250 -0.19868602 -0.0019967444 0.11462254 -0.85273594 0.11311668 -0.88764602 -0.25127009 0.0069088726
14074534375 -0.18405981 0.10424753 -0.26460496 -0.80181795 -0.29721078 -0.84033602 -0.24399875 0.084255874
14082812500 -0.12303758 0.18601827 -0.57438445 -0.59560579 -0.63451678 -0.60744363 -0.22991297 0.16470025
14091090625 -0.03773066 0.2352287 -0.75673056 -0.28526151 -0.8155967 -0.25234804 -0.18422377 0.2684913
14099368750 0.066126525 0.25312901 -0.78787827 0.06040065 -0.81296873 0.12113306 -0.065756068 0.36503738
14107646875 0.18648539 0.22466968 -0.67712212 0.37439826 -0.66314626 0.43061453 0.11795444 0.38561553
14115925000 0.29685774 0.12667437 -0.45771119 0.60863942 -0.4259142 0.64305419 0.29687011 0.2917636
14124203125 0.34633851 -0.0356794 -0.17178194 0.7386831 -0.138845 0.75577879 0.39333013 0.11080515
14132481250 0.29275626 -0.21389662 0.14208713 0.74976605 0.17759553 0.76182759 0.3733452 -0.082078174
14140759375 0.1428075 -0.33552179 0.44472665 0.63825333 0.49194315 0.63763022 0.26662356 -0.21177821
14149037500 -0.045136247 -0.35141501 0.68996412 0.40397903 0.73935312 0.37245712 0.14906159 -0.254859
14157315625 -0.19710328 -0.27234927 0.82199323 0.066977054 0.84088022 0.0051629208 0.074753404 -0.26166642
14165593750 -0.28016505 -0.15410127 0.78509498 -0.31435367 0.75702363 -0.37016049 0.016190337 -0.29596737
14173871875 -0.31771344 -0.035051655 0.56230879 -0.64658475 0.51144797 -0.66130704 -0.099626429 -0.34318727
14182150000 -0.3688896 0.10820736 0.20185834 -0.8045755 0.20217888 -0.80527997 -0.32174832 -0.25729111
14190428125 -0.30226305 0.28479144 -0.16898817 -0.80058044 -0.16043642 -0.81417727 -0.43320668 -0.097762778
14198706250 -0.14116313 0.41406515 -0.49229395 -0.64254004 -0.49523601 -0.6704424 -0.44652221 0.10978812
14206984375 0.068704337 0.43671149 -0.71494311 -0.36850911 -0.74149847 -0.39525485 -0.3536953 0.290243
14215262500 0.25000611 0.3494744 -0.80221659 -0.025488775 -0.84455568 -0.029569397 -0.20149982 0.39455348
14223540625 0.35283619 0.20352349 -0.73168057 0.32271206 -0.76769745 0.34869424 -0.044670526 0.42857817
14231818750 0.38648584 0.053910956 -0.51474667 0.60341877 -0.52306724 0.64396417 0.10529383 0.42131993
14240096875 0.37964195 -0.090538561 -0.1990376 0.75692374 -0.18219163 0.784531 0.26220933 0.36973742
14248375000 0.32717746 -0.24124399 0.14097086 0.75422078 0.16115186 0.76073599 0.40841395 0.24560358
14256653125 0.20003588 -0.37852818 0.43497476 0.61147428 0.44342706 0.609487 0.48988882 0.046186071
14264931250 -0.00027528338 -0.44489381 0.63419378 0.37204865 0.6362626 0.37704211 0.46139094 -0.17923811
14273209375 -0.21853304 -0.39692774 0.72297502 0.086377658 0.73275411 0.097074755 0.32538018 -0.3609409
14281487500 -0.38075915 -0.24290383 0.70175546 -0.20933035 0.72282892 -0.2076599 0.12950067 -0.4507885
14289765625 -0.44132447 -0.041115828 0.57054955 -0.48506895 0.58679414 -0.49905005 -0.064450547 -0.44616535
14298043750 -0.40943417 0.14830852 0.32340783 -0.69984722 0.32452676 -0.71800232 -0.22790828 -0.38118055
14306321875 -0.31938833 0.30072123 -0.012895174 -0.78817922 -0.019635186 -0.79635507 -0.36419278 -0.27370548
14314600000 -0.18325731 0.42245966 -0.36077926 -0.71060812 -0.36086512 -0.7101717 -0.46851358 -0.11214162
14322878125 0.011500192 0.49384645 -0.62846822 -0.47960484 -0.62969756 -0.49138826 -0.49636239 0.09739925
14331156250 0.25099197 0.45996714 -0.76390332 -0.17247646 -0.7834754 -0.18532309 -0.41958106 0.3092142
14339434375 0.45353693 0.28569743 -0.77002013 0.15560322 -0.80113238 0.16438812 -0.24291414 0.45975193
14347712500 0.52175802 0.019608455 -0.65125233 0.46739984 -0.66642386 0.50088435 -0.022012802 0.49661449
14355990625 0.42295229 -0.2231604 -0.40519932 0.71995723 -0.38903391 0.75520521 0.16372845 0.42616519
14364268750 0.22909346 -0.33923632 -0.049651168 0.85141098 -0.012502165 0.86231232 0.27313659 0.31019416
14372546875 0.064714015 -0.32707742 0.34724841 0.80104762 0.37882885 0.77934813 0.33576563 0.20434634
14380825000 -0.019836277 -0.2870096 0.68097878 0.55578107 0.68274367 0.51602125 0.39730835 0.088023834
14389103125 -0.094516896 -0.28124815 0.84890515 0.18022484 0.81320125 0.15399489 0.42798704 -0.084152922
14397381250 -0.21833587 -0.25210169 0.81642163 -0.21113746 0.76887912 -0.19462748 0.35787091 -0.28820676
14405659375 -0.3395094 -0.12866594 0.62309909 -0.52097297 0.6076045 -0.46870866 0.16882493 -0.43648815
14413937500 -0.37074766 0.063233905 0.34614429 -0.70662469 0.37841818 -0.65909189 -0.07644172 -0.45413187
14422215625 -0.28496453 0.24109435 0.040107116 -0.77306229 0.097092614 -0.76691616 -0.2818085 -0.33482191
14430493750 -0.12604891 0.33691794 -0.26426035 -0.73398566 -0.22375448 -0.76959246 -0.37077403 -0.14092977
14438771875 0.036669269 0.34023935 -0.54926354 -0.58706516 -0.54805315 -0.63485438 -0.33709911 0.027884016
14447050000 0.16712086 0.31123441 -0.77998745 -0.30632767 -0.7808044 -0.3061187 -0.38440552 0.068779141
14455328125 0.27624413 0.22278915 -0.85767317 0.057523455 -0.85335559 0.059279922 -0.33482662 0.20083356
14463606250 0.35781732 0.084349729 -0.76119351 0.42490703 -0.75218576 0.42564076 -0.24173366 0.321991
14471884375 0.36460334 -0.10661012 -0.51959878 0.71266735 -0.50591904 0.70748848 -0.08774323 0.40487424
14480162500 0.24354629 -0.28981221 -0.1805715 0.88133109 -0.16594218 0.87089193 0.10643788 0.39797291
14488440625 0.017841132 -0.35481289 0.2157784 0.90352488 0.23075715 0.88350755 0.2651189 0.27740416
14496718750 -0.18367016 -0.24613413 0.60955286 0.7440936 0.61590761 0.70711398 0.30863732 0.10081504
14504996875 -0.23085597 -0.051166665 0.89931083 0.39755514 0.8803193 0.35047624 0.24389715 -0.023746485
14513275000 -0.13790409 0.067578979 0.98577327 -0.05031145 0.93504852 -0.083461568 0.16909154 -0.047492858
14521553125 -0.045799475 0.058766473 0.85708439 -0.48236203 0.79045844 -0.4780826 0.16495915 -0.035095934
14529831250 -0.046236303 0.016066557 0.55263942 -0.80845857 0.49981117 -0.76271421 0.20623145 -0.081341043
14538109375 -0.088386059 0.045212448 0.13737449 -0.9598071 0.12123668 -0.89397156 0.1972615 -0.19924136
14546387500 -0.062896878 0.13075759 -0.29631457 -0.90335524 -0.2707001 -0.84642279 0.082524031 -0.30634615
14554665625 0.049900915 0.16609795 -0.63804317 -0.66689736 -0.58971548 -0.64347321 -0.089503787 -0.31164172
14562943750 0.16075985 0.091404267 -0.83079046 -0.32944492 -0.79185987 -0.34315607 -0.2201173 -0.20901617
14571221875 0.18006256 -0.045473628 -0.87425065 0.033294555 -0.86787045 0.0071508293 -0.25363192 -0.071057148
14579500000 0.083623379 -0.096872836 -0.79851484 0.38579932 -0.79756778 0.38599443 -0.22635417 -0.0022775512
14587778125 -0.0012029784 -0.1145153 -0.57271463 0.6876573 -0.56556684 0.69980359 -0.22067927 0.050941885
14596056250 -0.069191299 -0.088567361 -0.23416308 0.87620628 -0.2115739 0.88531214 -0.22392198 0.1109485
14604334375 -0.11775685 -0.045704167 0.16477497 0.90019405 0.19200306 0.8956731 -0.20565709 0.19979322
14612612500 -0.16013101 0.018140268 0.53800482 0.74494165 0.56166351 0.73031735 -0.12850617 0.29188278
14620890625 -0.17431149 0.12691678 0.80598158 0.44526955 0.83057272 0.42202735 0.0025733383 0.33541629
14629168750 -0.099715702 0.25642529 0.92153257 0.057746682 0.94204307 0.016168654 0.14046328 0.29896712
14637446875 0.073423289 0.31469813 0.86057001 -0.34380955 0.85654449 -0.40388402 0.23147029 0.20476919
14645725000 0.25862744 0.23361871 0.62919676 -0.68162197 0.58635032 -0.74144077 0.26559749 0.1012006
14654003125 0.34616822 0.047511797 0.27499473 -0.88716722 0.19454521 -0.91717511 0.27146843 0.012610686
14662281250 0.29667559 -0.13864014 -0.13315199 -0.92248982 -0.22569029 -0.89494205 0.26846758 -0.077952936
14670559375 0.16656271 -0.24069481 -0.526851 -0.77705759 -0.58196044 -0.69158202 0.23487401 -0.18652281
14678837500 0.040274441 -0.25543627 -0.81926048 -0.46330422 -0.80195957 -0.36656198 0.14319187 -0.28725794
14687115625 -0.051287573 -0.23756558 -0.93117338 -0.043324508 -0.86237073 0.003379717 0.0035620676 -0.33814934
14695393750 -0.13629124 -0.21625459 -0.83093995 0.37040123 -0.77165633 0.35570055 -0.14678098 -0.31926361
14703671875 -0.23904487 -0.16593578 -0.56457508 0.67273486 -0.55231291 0.63952339 -0.27204654 -0.24246539
14711950000 -0.34361005 -0.011103475 -0.2312642 0.80716407 -0.23085779 0.80723792 -0.35904109 -0.12755656
14720228125 -0.33492437 0.15465543 0.1193561 0.81024384 0.12859137 0.83034849 -0.40258142 0.0095031187
14728506250 -0.24445464 0.30189249 0.43309239 0.67945296 0.46666679 0.69659722 -0.40095964 0.16401197
14736784375 -0.093781553 0.38945019 0.66593492 0.43802765 0.71445817 0.4331513 -0.33495113 0.32971478
14745062500 0.077731013 0.40255615 0.78491712 0.12709489 0.82739747 0.096364945 -0.18367092 0.46777937
14753340625 0.24036968 0.34369668 0.76846492 -0.20869449 0.79467666 -0.25606814 0.037330516 0.52091295
14761618750 0.37013888 0.22153981 0.61631989 -0.51070017 0.62473398 -0.56847721 0.26502022 0.45304349
14769896875 0.44219229 0.044092588 0.34896734 -0.72836673 0.33143952 -0.7944153 0.42747858 0.27933297
14778175000 0.424483 -0.15927544 0.0081385076 -0.81668192 -0.046944968 -0.87703294 0.48064372 0.062713541
14786453125 0.30873135 -0.33601108 -0.34630296 -0.75156635 -0.43756291 -0.77521992 0.43827564 -0.13277979
14794731250 0.1215083 -0.43575513 -0.6454528 -0.53083104 -0.740017 -0.49335721 0.33920744 -0.28297973
14803009375 -0.082975462 -0.44048956 -0.81858426 -0.195566 -0.86863774 -0.10797273 0.20548938 -0.39255768
14811287500 -0.26603794 -0.36076733 -0.81962383 0.18750133 -0.80532235 0.27781925 0.032637343 -0.45748523
14819565625 -0.40288636 -0.21465707 -0.64608204 0.52672786 -0.59078681 0.5766623 -0.16755915 -0.44870639
14827843750 -0.46949878 -0.017638132 -0.34340811 0.74393773 -0.29156002 0.74686652 -0.35224581 -0.34794447
14836121875 -0.44030905 0.19836183 0.012482285 0.80142236 0.035321534 0.78554457 -0.47421008 -0.17383301
14844400000 -0.31127873 0.37814739 0.34083369 0.70214576 0.34082696 0.70209539 -0.50766516 0.026887614
14852678125 -0.11162054 0.476841 0.59369665 0.48790184 0.59955347 0.50648755 -0.46263769 0.21920983
14860956250 0.10079971 0.47262332 0.73517412 0.19495362 0.76228482 0.21746658 -0.35517237 0.37904599
14869234375 0.27885517 0.38448805 0.74442428 -0.12836805 0.79169101 -0.12001969 -0.19562481 0.49819276
14877512500 0.40276995 0.24185196 0.61592692 -0.42568865 0.67464125 -0.44364783 0.015367447 0.55633038
14885790625 0.4668566 0.066779748 0.3791436 -0.63524383 0.43365744 -0.68986177 0.25397074 0.51636297
14894068750 0.46055403 -0.12998295 0.084823795 -0.72689438 0.10821147 -0.81856722 0.46390244 0.35571569
14902346875 0.36516538 -0.31806564 -0.2122433 -0.69722146 -0.24993421 -0.80349195 0.57023817 0.10149281
14910625000 0.18284696 -0.44725743 -0.47724572 -0.56150657 -0.58189106 -0.63449734 0.53243905 -0.16841607
14918903125 -0.044990227 -0.46927792 -0.68193996 -0.32763666 -0.81746781 -0.32141778 0.37399364 -0.36979219
14927181250 -0.24488603 -0.37647608 -0.78203756 -0.011920389 -0.88477802 0.076958261 0.16775177 -0.46039397
14935459375 -0.36463508 -0.21416676 -0.73080951 0.34076405 -0.75424701 0.46572164 -0.026697235 -0.46326342
14943737500 -0.4028143 -0.040481508 -0.51269203 0.64403594 -0.46074045 0.73850924 -0.19442698 -0.41096216
14952015625 -0.38356471 0.12566744 -0.17069046 0.80998003 -0.094686896 0.84309703 -0.33959588 -0.31099373
14960293750 -0.30342531 0.28558093 0.20743294 0.79527402 0.26037645 0.78350973 -0.44377083 -0.15431495
14968571875 -0.14738697 0.40528935 0.5261389 0.61695802 0.54465365 0.59909528 -0.47146192 0.037870493
14976850000 0.059370603 0.43786979 0.73211747 0.3283208 0.73232323 0.32777804 -0.40998894 0.2210962
14985128125 0.24778818 0.3443709 0.79703075 -0.011826052 0.80597609 0.0074317562 -0.27955943 0.35217953
14993406250 0.34648243 0.1765151 0.71797138 -0.34796834 0.75339675 -0.32558984 -0.12399016 0.41289219
15001684375 0.34479418 0.012108905 0.50112516 -0.62935406 0.56132507 -0.62484044 0.027455816 0.41864279
15009962500 0.2917245 -0.10005202 0.17352636 -0.7894634 0.24769613 -0.82041854 0.17117023 0.38633302
15018240625 0.23664229 -0.18250068 -0.19674385 -0.77881426 -0.12985818 -0.85883313 0.31439853 0.30453911
15026518750 0.1628774 -0.27288887 -0.50802624 -0.5977878 -0.48831603 -0.73031026 0.42767444 0.15069395
15034796875 0.023334952 -0.34662572 -0.69164497 -0.31659171 -0.76319963 -0.46175832 0.45256299 -0.062110487
15043075000 -0.17149664 -0.32656947 -0.74189419 -0.0086879525 -0.90642077 -0.091982692 0.35003385 -0.26219258
15051353125 -0.33000803 -0.17534494 -0.68415773 0.28153482 -0.87505239 0.32019791 0.15762034 -0.35734802
15059631250 -0.35382405 0.050807998 -0.52770936 0.54142255 -0.65108079 0.6904071 -0.021165861 -0.32073763
15067909375 -0.22401462 0.2255127 -0.26865175 0.73657924 -0.27026066 0.91596842 -0.10337743 -0.22257777
15076187500 -0.034879208 0.25466904 0.074799336 0.81165302 0.1720254 0.93420219 -0.11181969 -0.16443025
15084465625 0.080963269 0.16201939 0.43803662 0.72080857 0.56254911 0.74577534 -0.13950917 -0.161578
15092743750 0.081842452 0.068971083 0.73254365 0.4639219 0.8122676 0.41355371 -0.22629821 -0.1333625
15101021875 0.051222783 0.052265633 0.8825016 0.084627979 0.88537449 0.024566965 -0.3060289 -0.015967125
15109300000 0.1931687 0.029237486 0.81158674 -0.31956241 0.81138819 -0.32058427 -0.22088216 0.15929371
15117578125 0.17310721 -0.081284516 0.58666974 -0.64718443 0.60557705 -0.62630379 -0.13842446 0.21533717
15125856250 0.07140366 -0.16617301 0.23870878 -0.83754861 0.29109123 -0.8283813 -0.051844902 0.21863864
15134134375 -0.070372209 -0.1513622 -0.15223718 -0.85031867 -0.087487169 -0.8816759 -0.0018308472 0.18941696
15142412500 -0.15321942 -0.034910668 -0.5022403 -0.69311881 -0.4589479 -0.76526237 0.011230648 0.17830002
15150690625 -0.11769595 0.094709866 -0.74607974 -0.41119641 -0.74582803 -0.50067139 0.038884822 0.20982607
15158968750 -0.0085385712 0.13994589 -0.85519046 -0.05455659 -0.8992914 -0.13741963 0.13323207 0.23837197
15167246875 0.071479157 0.091183297 -0.8033843 0.32779524 -0.88480562 0.26812243 0.27158946 0.1817137
15175525000 0.070058808 0.029359933 -0.57481343 0.65472394 -0.68663651 0.6382367 0.35473695 0.017539898
15183803125 0.041154768 0.027388437 -0.21801002 0.83276403 -0.33444148 0.88267702 0.30703408 -0.17225392
15192081250 0.06386853 0.05809455 0.16226728 0.82462192 0.089972787 0.94099957 0.15994629 -0.27789691
15200359375 0.13706475 0.039486296 0.48287237 0.6670025 0.49597511 0.80558908 0.014875258 -0.27272147
15208637500 0.1833168 -0.061098445 0.71044922 0.40703419 0.80289698 0.50032657 -0.065498732 -0.21990317
15216915625 0.13304834 -0.19005267 0.82195389 0.075707518 0.93424278 0.085427552 -0.10448597 -0.18773237
15225193750 -0.0063523571 -0.25732392 0.78563237 -0.28640303 0.85307175 -0.33514208 -0.16056877 -0.17479654
15233471875 -0.15693974 -0.22002698 0.589248 -0.60370684 0.59987491 -0.65007263 -0.24630789 -0.12900002
15241750000 -0.25797647 -0.11727647 0.27166674 -0.80643028 0.27070129 -0.8063044 -0.33998662 0.0084864581
15250028125 -0.30210152 0.016243227 -0.11125723 -0.84850842 -0.083263628 -0.83139306 -0.32727933 0.14307272
15258306250 -0.29524785 0.16007242 -0.47487548 -0.70861709 -0.41352445 -0.7197724 -0.25362805 0.25457957
15266584375 -0.21824586 0.30926275 -0.72666669 -0.41732699 -0.67742968 -0.48330578 -0.15025824 0.32136306
15274862500 -0.053657301 0.41373065 -0.81643301 -0.061833177 -0.82026118 -0.15172216 -0.044565897 0.35502315
15283140625 0.16089144 0.41084278 -0.75293559 0.27897251 -0.8055535 0.21170242 0.072941855 0.37520805
15291418750 0.34507802 0.28356662 -0.56843084 0.56156844 -0.63733399 0.53029752 0.22965436 0.36048406
15299696875 0.42570052 0.078436635 -0.28515035 0.75282788 -0.35536644 0.74525851 0.40572524 0.25194326
15307975000 0.38431558 -0.12143873 0.065648481 0.81112731 -0.010177888 0.82704365 0.51930064 0.027498588
15316253125 0.26957551 -0.25137269 0.41531777 0.70582741 0.34034643 0.75964695 0.48427841 -0.25017038
15324531250 0.14507014 -0.31458828 0.68182349 0.45091355 0.63596827 0.54954237 0.29160479 -0.46474981
15332809375 0.024498289 -0.35059524 0.8001554 0.10643453 0.82119977 0.22713313 0.023943717 -0.53144658
15341087500 -0.12217696 -0.36166623 0.75441527 -0.24288991 0.84937024 -0.15635407 -0.20637044 -0.45425123
15349365625 -0.29435557 -0.30140632 0.56976414 -0.52781045 0.69394517 -0.52473074 -0.3433238 -0.31125414
15357643750 -0.43196884 -0.14705762 0.29803509 -0.70369083 0.37570029 -0.77649409 -0.40964863 -0.17113596
15365921875 -0.47721931 0.067659192 -0.012092561 -0.76031089 -0.014617688 -0.83802003 -0.4521673 -0.035117351
15374200000 -0.41385582 0.28207967 -0.32448852 -0.69691062 -0.32450166 -0.69627035 -0.49053273 0.17560494
15382478125 -0.25468856 0.4384678 -0.5919494 -0.50760192 -0.56495309 -0.49173662 -0.39120901 0.35870036
15390756250 -0.050752819 0.50844568 -0.76306152 -0.21215482 -0.70452112 -0.22428113 -0.21661973 0.48620397
15399034375 0.16080022 0.4928371 -0.78590256 0.13809562 -0.73763222 0.071823336 -0.002883167 0.52316117
15407312500 0.35960799 0.39597514 -0.64940846 0.46422419 -0.65795743 0.36967561 0.19947052 0.46543187
15415590625 0.51314509 0.20946442 -0.38672948 0.69463569 -0.45622301 0.62643737 0.35117605 0.3372063
15423868750 0.56400442 -0.047084458 -0.05655735 0.78871393 -0.14515777 0.77819741 0.43851656 0.17429079
15432146875 0.47477764 -0.3026562 0.27879339 0.73794639 0.21250598 0.77062291 0.47056693 -0.0016606159
15440425000 0.27295718 -0.47342929 0.56371403 0.55459201 0.52705789 0.59767121 0.4469457 -0.18968986
15448703125 0.032495901 -0.52254826 0.75044543 0.26685965 0.72534102 0.30880561 0.34528479 -0.37731528
15456981250 -0.18480696 -0.46820354 0.79783368 -0.080613196 0.77890676 -0.026822219 0.15172108 -0.51670146
15465259375 -0.35336763 -0.34397823 0.68405926 -0.41877151 0.69174135 -0.34717649 -0.10142142 -0.54914099
15473537500 -0.46212971 -0.16940199 0.4309763 -0.66643643 0.48420152 -0.60459346 -0.34339535 -0.45207477
15481815625 -0.49541318 0.03612357 0.1062303 -0.77154905 0.18555486 -0.75665885 -0.50533944 -0.2557205
15490093750 -0.44106662 0.2418886 -0.21662486 -0.73386294 -0.1575336 -0.76764393 -0.55754334 -0.019949058
15498371875 -0.30167505 0.40852073 -0.48941252 -0.58059537 -0.47477731 -0.62402165 -0.50958347 0.20215562
15506650000 -0.1003677 0.50188893 -0.68328696 -0.33815858 -0.68340796 -0.33721289 -0.36954987 0.37794876
15514928125 0.11590807 0.48485902 -0.77724385 -0.034778193 -0.74968523 -0.021126021 -0.18825525 0.48909855
15523206250 0.29090908 0.38416457 -0.74069101 0.29624155 -0.68503034 0.28447717 0.027326001 0.51745784
15531484375 0.40904173 0.23558047 -0.56175941 0.59511077 -0.50999349 0.53623438 0.23500843 0.44572341
15539762500 0.47009936 0.052908413 -0.26057869 0.79489982 -0.25081751 0.70314103 0.38031486 0.28863746
15548040625 0.45307165 -0.15582281 0.10936265 0.84502798 0.060046904 0.7577154 0.42757025 0.098596118
15556318750 0.33156818 -0.34663984 0.47050139 0.72304958 0.38060156 0.67964667 0.38980207 -0.063277975
15564596875 0.12467755 -0.45195827 0.74111402 0.4521924 0.6527245 0.46183166 0.31605163 -0.17166816
15572875000 -0.098737046 -0.4364388 0.86780143 0.093126722 0.80515945 0.13033478 0.24260521 -0.25028256
15581153125 -0.27135441 -0.32394868 0.8329519 -0.28890464 0.78586239 -0.24271537 0.15300046 -0.33068946
15589431250 -0.36685506 -0.16277649 0.63347536 -0.62928379 0.59800822 -0.56352824 0.0092330519 -0.39290282
15597709375 -0.38629019 0.010886741 0.29216576 -0.84839225 0.29361057 -0.76256591 -0.1806545 -0.37668428
15605987500 -0.3353512 0.17218678 -0.11292051 -0.88276309 -0.059947427 -0.81235659 -0.35119954 -0.24751978
15614265625 -0.22066273 0.29461882 -0.47507665 -0.73038244 -0.3996135 -0.71207988 -0.42503709 -0.03875462
15622543750 -0.063235939 0.34976113 -0.7210477 -0.45229572 -0.66885298 -0.4788678 -0.37139508 0.16931494
15630821875 0.095903866 0.32062432 -0.83067071 -0.11640032 -0.81907409 -0.14781372 -0.22757831 0.30114019
15639100000 0.21121585 0.22143993 -0.80704403 0.24261574 -0.80703139 0.24327131 -0.14396839 0.31946146
15647378125 0.23832451 0.094079584 -0.63823909 0.56055373 -0.62091792 0.56781811 -0.021620428 0.32067415
15655656250 0.21654198 0.0015588518 -0.34526199 0.78223211 -0.31206048 0.7760697 0.086813562 0.2903116
15663934375 0.18709692 -0.067520835 0.016883865 0.85954487 0.050895162 0.82632279 0.18148555 0.22525291
15672212500 0.14021075 -0.14144222 0.38158333 0.77753609 0.39034209 0.72013211 0.24207 0.123348
15680490625 0.041131556 -0.19995697 0.68202674 0.5452224 0.65027988 0.49145523 0.24493212 0.008704667
15688768750 -0.096166894 -0.18192089 0.85561001 0.20189132 0.80138159 0.18087213 0.19562387 -0.076347023
15697046875 -0.19268531 -0.065810233 0.86467296 -0.18425146 0.81876695 -0.17529242 0.1357908 -0.11153759
15705325000 -0.17810558 0.084977254 0.70927411 -0.53936678 0.67587852 -0.52156281 0.1013766 -0.12164254
15713603125 -0.065302379 0.17345251 0.41448054 -0.80227309 0.38164526 -0.77535987 0.08616212 -0.14804214
15721881250 0.060588494 0.15375757 0.021843372 -0.91723859 0.00065005192 -0.86785078 0.048739899 -0.20023827
15730159375 0.12020408 0.068505622 -0.39438155 -0.84066319 -0.37897718 -0.78134453 -0.038844872 -0.24033482
15738437500 0.11220363 -0.0062719965 -0.73444533 -0.57424396 -0.68284678 -0.54063916 -0.15355211 -0.22127253
15746715625 0.089177765 -0.048702709 -0.90873563 -0.1793813 -0.85805374 -0.18783696 -0.24046032 -0.13755542
15754993750 0.065977149 -0.094142482 -0.88045979 0.24394065 -0.85603225 0.21608508 -0.26698658 -0.033871002
15763271875 0.0031130158 -0.14675523 -0.66642791 0.59669852 -0.6638065 0.576675 -0.25499111 0.048543029
15771550000 -0.11051933 -0.14746629 -0.32992765 0.80127072 -0.32934397 0.80173236 -0.24102499 0.11701106
15779828125 -0.21459244 -0.06492582 0.042206906 0.84806597 0.059310481 0.84861439 -0.20520149 0.19642889
15788106250 -0.24252227 0.075588495 0.38867125 0.74230719 0.41378358 0.71935052 -0.12971364 0.27642646
15796384375 -0.17670117 0.19894497 0.66097426 0.50903344 0.66302902 0.46188679 -0.0061991801 0.31890699
15804662500 -0.065372899 0.25167602 0.81600481 0.18111619 0.77775139 0.1437939 0.13008927 0.29231933
15812940625 0.028922793 0.24314298 0.81700379 -0.1875367 0.76492745 -0.18440226 0.2339588 0.20484987
15821218750 0.091262408 0.22366415 0.65381277 -0.5226354 0.62768638 -0.48972458 0.28339121 0.092832141
15829496875 0.1647146 0.21463494 0.35967323 -0.75002956 0.36268157 -0.72364569 0.29172 -0.011309672
15837775000 0.27774844 0.16520627 0.00047330151 -0.82352585 0.0080270953 -0.81442982 0.28752768 -0.10795157
15846053125 0.37544101 0.019043036 -0.34981284 -0.73580563 -0.34741595 -0.73193014 0.26666927 -0.22899127
15854331250 0.36508691 -0.19546792 -0.62132639 -0.50936097 -0.62583244 -0.50613374 0.17574011 -0.37588555
15862609375 0.21420331 -0.37773326 -0.76750493 -0.19953685 -0.77924967 -0.18374559 -0.02231135 -0.47538567
15870887500 -0.017152788 -0.43747944 -0.78067392 0.1351068 -0.77331072 0.17257543 -0.27282974 -0.43623617
15879165625 -0.22779825 -0.36664361 -0.66091681 0.46001819 -0.61186349 0.48014924 -0.45441884 -0.25394145
15887443750 -0.36848295 -0.22698428 -0.39325303 0.71626711 -0.34745765 0.68175495 -0.49913159 -0.022801386
15895721875 -0.45002359 -0.049439978 -0.022657875 0.80888861 -0.030412946 0.76193625 -0.43544319 0.16664049
15904000000 -0.45029107 0.16429982 0.31398389 0.70450592 0.31411132 0.704382 -0.4180429 0.28322467
15912278125 -0.35457194 0.36242625 0.5630188 0.48645601 0.58247906 0.48803729 -0.26737598 0.41789341
15920556250 -0.16247676 0.50390142 0.69130605 0.21132839 0.71667117 0.18162422 -0.087092221 0.48325428
15928834375 0.086558692 0.53187114 0.71308458 -0.077848427 0.70167011 -0.13250755 0.1111958 0.48428759
15937112500 0.31371278 0.42394584 0.63086784 -0.36035898 0.57034403 -0.39394921 0.3115544 0.39902806
15945390625 0.43798068 0.22392251 0.43799531 -0.60504478 0.36056471 -0.58040541 0.46285638 0.21877073
15953668750 0.43833029 0.025496867 0.13811086 -0.75811911 0.098686509 -0.67437249 0.50788933 -0.020417603
15961946875 0.37906817 -0.10396834 -0.22209504 -0.7554872 -0.18243223 -0.66155589 0.43047616 -0.2460821
15970225000 0.33518082 -0.19905515 -0.54433709 -0.56863618 -0.44231591 -0.53959417 0.26809108 -0.39435089
15978503125 0.2771993 -0.33307296 -0.72490889 -0.25284404 -0.64358032 -0.31622705 0.084902853 -0.45058882
15986781250 0.11705781 -0.47250915 -0.73296219 0.084334351 -0.73982584 -0.0076716621 -0.081854686 -0.44568664
15995059375 -0.14012763 -0.50606567 -0.60944927 0.36555454 -0.67782676 0.3298687 -0.23661345 -0.40295047
16003337500 -0.37082291 -0.40254512 -0.40671417 0.56597328 -0.45981133 0.59911203 -0.40270644 -0.29534575
16011615625 -0.52561128 -0.16226596 -0.14856087 0.68070316 -0.14914696 0.72966701 -0.51684439 -0.12847818
16019893750 -0.53072762 0.11342955 0.14355944 0.69262511 0.17091377 0.71248823 -0.55115902 0.095367134
16028171875 -0.41007638 0.33894309 0.43160626 0.5793134 0.44812441 0.57522577 -0.47069788 0.32592642
16036450000 -0.24580477 0.49545965 0.64816183 0.33646289 0.64916158 0.33608329 -0.28243122 0.49332941
16044728125 -0.024933815 0.55091321 0.73399866 0.021559069 0.74158216 0.03014477 -0.036962476 0.5476644
16053006250 0.20693627 0.5172109 0.66786021 -0.2955184 0.68926668 -0.30001459 0.18269493 0.4853963
16061284375 0.41495797 0.37658992 0.47688946 -0.54665488 0.48612422 -0.57651794 0.33872467 0.35923207
16069562500 0.53148615 0.14092259 0.20633711 -0.69439727 0.17621659 -0.7230562 0.44168121 0.20195985
16077840625 0.5068388 -0.11827549 -0.10042069 -0.72469616 -0.15556057 -0.70968878 0.4911024 0.0091156466
16086118750 0.36314237 -0.30838582 -0.4014076 -0.62931746 -0.42787501 -0.55802202 0.45468125 -0.20313084
16094396875 0.17845304 -0.3909547 -0.64789599 -0.40622589 -0.59978789 -0.32457033 0.31755906 -0.38371646
16102675000 0.015215017 -0.39743415 -0.77258396 -0.081704475 -0.66777843 -0.061894301 0.11051901 -0.47864491
16110953125 -0.12839173 -0.37057555 -0.72931206 0.26888543 -0.64176786 0.20185047 -0.11010981 -0.46439773
16119231250 -0.2729063 -0.30499303 -0.5314371 0.55076575 -0.52366596 0.44798675 -0.28893134 -0.35615805
16127509375 -0.39781985 -0.17007796 -0.24440449 0.70695066 -0.30719724 0.6444397 -0.39096576 -0.19356969
16135787500 -0.45142835 0.027259611 0.063106209 0.73379391 -0.0058706244 0.74031556 -0.41554284 -0.025470117
16144065625 -0.39580712 0.23587389 0.35150057 0.64662629 0.32485917 0.68840247 -0.38946867 0.12467163
16152343750 -0.24056359 0.38720375 0.59389067 0.45674559 0.60379565 0.4852713 -0.32270455 0.26552561
16160621875 -0.038360633 0.43560815 0.75153631 0.17091557 0.76391053 0.17486303 -0.19465975 0.38715145
16168900000 0.14287892 0.38795024 0.77922726 -0.1765601 0.77956045 -0.17737477 -0.038709637 0.43991509
16177178125 0.27189547 0.27460626 0.63885981 -0.51488048 0.6310885 -0.50680405 0.14614685 0.39025599
16185456250 0.34730923 0.13197455 0.34893283 -0.75856084 0.34951481 -0.74281251 0.27447051 0.26513284
16193734375 0.36366731 -0.038118355 -0.025502766 -0.84126782 -0.018065995 -0.83177048 0.32142445 0.11549304
16202012500 0.28910175 -0.20920946 -0.39473003 -0.74402368 -0.39557293 -0.73629928 0.30557907 -0.012757802
16210290625 0.12592469 -0.31378424 -0.67724282 -0.49625441 -0.67910063 -0.47186914 0.26260376 -0.10874857
16218568750 -0.061612889 -0.30304289 -0.82337409 -0.1576383 -0.79795563 -0.11935743 0.2071247 -0.18825236
16226846875 -0.19272007 -0.19206282 -0.8158825 0.20840095 -0.75176358 0.22714433 0.12735119 -0.25810134
16235125000 -0.22306715 -0.048687425 -0.65493876 0.54209965 -0.57949114 0.50802213 0.013426535 -0.29825857
16243403125 -0.17176871 0.054492477 -0.35859326 0.78061348 -0.3193703 0.69832009 -0.11625546 -0.27907965
16251681250 -0.10161575 0.088784121 0.016958557 0.8652885 -0.0043414766 0.77431589 -0.21733274 -0.19835068
16259959375 -0.060774419 0.0843895 0.39279959 0.77269 0.32490414 0.71452641 -0.25923395 -0.088700145
16268237500 -0.046673089 0.087752678 0.6877774 0.5269174 0.60643286 0.51775938 -0.24827063 0.0058038896
16276515625 -0.02245597 0.11027253 0.84844798 0.18078357 0.78094035 0.2130322 -0.21612673 0.069585897
16284793750 0.035079632 0.12243839 0.84802186 -0.20292464 0.81225091 -0.14487541 -0.18488254 0.11598483
16293071875 0.10824432 0.084660336 0.67929965 -0.5504356 0.68386191 -0.4936215 -0.1497082 0.16124946
16301350000 0.050833736 -0.094150506 0.40160745 -0.77475232 0.40077582 -0.77431804 -0.096676387 0.2033667
16309628125 -0.030020127 -0.10272845 0.027511068 -0.88612777 0.013331792 -0.87943965 -0.025690459 0.21831411
16317906250 -0.097942524 -0.071119338 -0.36830947 -0.81887716 -0.38603872 -0.79383516 0.039164145 0.21169144
16326184375 -0.14478506 -0.012097026 -0.69552523 -0.57567888 -0.7003479 -0.52844101 0.10043058 0.20007217
16334462500 -0.16339427 0.072199635 -0.87913513 -0.2138382 -0.84936059 -0.1537303 0.17857772 0.17830129
16342740625 -0.12968074 0.17313774 -0.88466728 0.19208065 -0.80714899 0.23455594 0.27294919 0.10847721
16351018750 -0.02724375 0.24955891 -0.71191144 0.55904126 -0.60839367 0.5433374 0.3323535 -0.030321477
16359296875 0.11884361 0.24909829 -0.39254445 0.81210959 -0.31525284 0.73002332 0.30066809 -0.20109792
16367575000 0.24230695 0.15544629 0.0026508807 0.89407778 0.014533061 0.78188241 0.17393583 -0.32806307
16375853125 0.28892133 0.0099428473 0.38680136 0.79549527 0.33384469 0.70467174 0.0078070546 -0.3627322
16384131250 0.2555325 -0.12772721 0.68540221 0.54424447 0.60230654 0.5049879 -0.13025683 -0.31317213
16392409375 0.17647408 -0.22899231 0.84575635 0.19392318 0.77022469 0.20361094 -0.20544797 -0.23248644
16400687500 0.068463556 -0.30030417 0.8367247 -0.19130509 0.78888834 -0.15398768 -0.24389213 -0.17138647
16408965625 -0.075601779 -0.33277515 0.65650874 -0.52658749 0.64077818 -0.48910436 -0.29891434 -0.12371132
16417243750 -0.24195458 -0.29141587 0.36014566 -0.73575938 0.35676524 -0.71447206 -0.37717992 -0.03262125
16425521875 -0.37846619 -0.15909298 0.021826329 -0.79850197 0.011750358 -0.78545862 -0.41676244 0.13556239
16433800000 -0.42992386 0.030174602 -0.2989068 -0.73161346 -0.29931197 -0.73192501 -0.30050051 0.35155669
16442078125 -0.38225004 0.22224307 -0.57307267 -0.54465258 -0.58776683 -0.5355382 -0.12072408 0.46773016
16450356250 -0.25946611 0.36363155 -0.75367159 -0.25591156 -0.7674849 -0.22992413 0.10027622 0.47883689
16458634375 -0.10135692 0.44187102 -0.79288065 0.091656357 -0.79508966 0.13178165 0.29418451 0.38498053
16466912500 0.074531727 0.46669045 -0.67396605 0.42343968 -0.65293235 0.4743275 0.42190751 0.22682823
16475190625 0.26746988 0.42706072 -0.42505413 0.66460705 -0.3651908 0.7080937 0.47897404 0.042984594
16483468750 0.45502529 0.29281175 -0.10222001 0.77716434 -0.0101139 0.77384096 0.47063744 -0.15208082
16491746875 0.56842452 0.053857964 0.23641518 0.74424076 0.31351662 0.67262465 0.38500866 -0.34497526
16500025000 0.53660291 -0.22919011 0.52948374 0.57185376 0.54014415 0.46347338 0.21382375 -0.49541366
16508303125 0.3564285 -0.45329618 0.72266001 0.28800738 0.65957975 0.20368624 -0.019811792 -0.55438346
16516581250 0.10475306 -0.54748636 0.77247232 -0.051592365 0.6786713 -0.070317268 -0.25524867 -0.49727574
16524859375 -0.13886842 -0.52473825 0.66695338 -0.38087064 0.59680748 -0.33539796 -0.43329313 -0.3441861
16533137500 -0.34697381 -0.4200803 0.42276654 -0.62157905 0.41315266 -0.55517679 -0.52385354 -0.14408417
16541415625 -0.5080331 -0.23586528 0.11046237 -0.71404207 0.14724652 -0.68387413 -0.53480488 0.060011443
16549693750 -0.57566506 0.01788024 -0.18050258 -0.66565526 -0.1551435 -0.68806237 -0.48308328 0.25609225
16557971875 -0.5110864 0.27946311 -0.40546605 -0.53208369 -0.43199527 -0.56199789 -0.35975394 0.43745771
16566250000 -0.37529519 0.43332016 -0.63324541 -0.33735356 -0.63350439 -0.33677036 -0.15142934 0.56568062
16574528125 -0.15261729 0.54579639 -0.72065872 -0.057466097 -0.71790731 -0.04544533 0.10593581 0.59552336
16582806250 0.086118706 0.53993607 -0.69814557 0.24452907 -0.68388706 0.25714296 0.36620298 0.49558023
16591084375 0.27967247 0.43975037 -0.54735523 0.53413242 -0.52818465 0.53573018 0.54982632 0.26878566
16599362500 0.40614644 0.29866356 -0.26524231 0.73965746 -0.25245053 0.7385729 0.58827174 -0.016226063
16607640625 0.49618965 0.13697794 0.098229557 0.78912407 0.11561999 0.79795879 0.48399058 -0.2581667
16615918750 0.54282802 -0.075373396 0.43889946 0.65254539 0.48340216 0.65628105 0.31262562 -0.39751315
16624196875 0.48249164 -0.32857466 0.66151702 0.38282487 0.7263574 0.34211913 0.1422618 -0.46449941
16632475000 0.28152451 -0.53787804 0.73647702 0.068900205 0.76590383 -0.034800161 -0.038046159 -0.49363425
16640753125 -0.011002775 -0.61561185 0.68788791 -0.22661059 0.62856805 -0.3447291 -0.2426739 -0.45533255
16649031250 -0.30359712 -0.5299778 0.53891593 -0.48010534 0.40352777 -0.53130203 -0.42295206 -0.31831655
16657309375 -0.50381261 -0.31425294 0.30347899 -0.66245103 0.16647957 -0.60987842 -0.52109998 -0.11336211
16665587500 -0.56405836 -0.047379967 0.0054507633 -0.74148875 -0.05871065 -0.6168198 -0.52250153 0.10699286
16673865625 -0.49847734 0.1906608 -0.31328592 -0.68584013 -0.27789563 -0.56740332 -0.43778941 0.30439258
16682143750 -0.3600986 0.35691535 -0.5822106 -0.49166587 -0.49449155 -0.44755897 -0.28697163 0.45072925
16690421875 -0.18435219 0.45729116 -0.73685539 -0.19404821 -0.67802447 -0.22454572 -0.092900746 0.52780843
16698700000 0.0031291763 0.49790227 -0.74764317 0.13198657 -0.74680722 0.13228416 0.10391811 0.50413251
16706978125 0.21270488 0.43393913 -0.62554061 0.42782274 -0.63660514 0.45655239 0.28427038 0.413647
16715256250 0.36430979 0.27247098 -0.39871994 0.65260571 -0.38093033 0.70502031 0.42972535 0.26145458
16723534375 0.40538234 0.071583949 -0.09742032 0.77576667 -0.034488194 0.81453568 0.50818294 0.043392926
16731812500 0.35019401 -0.090779655 0.24924473 0.76673758 0.33108854 0.75470632 0.46556392 -0.20451048
16740090625 0.26732647 -0.18638709 0.57816887 0.59460676 0.63254434 0.53670245 0.29440379 -0.39234218
16748368750 0.19447079 -0.26066184 0.79431641 0.27296951 0.80645835 0.20923239 0.0654613 -0.45043078
16756646875 0.089875385 -0.34326845 0.82474679 -0.11335926 0.82135206 -0.16408458 -0.12624575 -0.38819724
16764925000 -0.082548246 -0.3848168 0.68064296 -0.45293882 0.6710158 -0.5103429 -0.23504344 -0.27564177
16773203125 -0.28512874 -0.31249931 0.41810873 -0.68698877 0.37434596 -0.75355238 -0.28295192 -0.17090793
16781481250 -0.41640604 -0.11705609 0.097042114 -0.79403931 0.0052844528 -0.83028412 -0.3113468 -0.081809543
16789759375 -0.399508 0.12204964 -0.24189937 -0.76876718 -0.34377071 -0.73736328 -0.33069387 0.018652186
16798037500 -0.24465413 0.28758371 -0.55221593 -0.60538268 -0.60748559 -0.51975995 -0.3130945 0.13907184
16806315625 -0.050951265 0.31391463 -0.7742579 -0.31753218 -0.76362294 -0.23072593 -0.23638152 0.24933967
16814593750 0.082595304 0.23873307 -0.85102522 0.056282781 -0.80426365 0.10117611 -0.11353057 0.30830336
16822871875 0.13729587 0.1445348 -0.74572057 0.43531376 -0.70831305 0.43746793 0.0083753457 0.29819405
16831150000 0.15470937 0.063545413 -0.47087502 0.72229153 -0.47057107 0.72254378 0.081901491 0.23691802
16839428125 0.15188906 -0.021406237 -0.097453311 0.85029143 -0.10998855 0.87843663 0.1343879 0.18698354
16847706250 0.09769173 -0.11018614 0.28037229 0.79536092 0.29632178 0.85462207 0.18294534 0.14576957
16855984375 -0.015336958 -0.14716116 0.58578533 0.58871031 0.65489233 0.63923681 0.24080901 0.080834955
16864262500 -0.12774858 -0.090125695 0.77248704 0.28501832 0.87571812 0.28403616 0.27186948 -0.026733698
16872540625 -0.162682 0.032532979 0.8196156 -0.066329293 0.91436499 -0.13119055 0.23640081 -0.14597015
16880818750 -0.097162314 0.13803011 0.71721512 -0.40892711 0.76635486 -0.52444452 0.14426142 -0.22112729
16889096875 0.016613496 0.15933819 0.478475 -0.67874932 0.45488393 -0.8147006 0.050064951 -0.23137416
16897375000 0.098771542 0.10104662 0.14328413 -0.82510352 0.03576985 -0.92853248 -0.0060201529 -0.21417467
16905653125 0.11566634 0.024269124 -0.22917813 -0.81805748 -0.37907979 -0.83069348 -0.042000424 -0.216692
16913931250 0.097088054 -0.023858879 -0.57280159 -0.64595914 -0.68538624 -0.56703144 -0.10546043 -0.2334013
16922209375 0.083826549 -0.049990565 -0.80966586 -0.32484019 -0.84272903 -0.2169451 -0.20695411 -0.21674828
16930487500 0.082111724 -0.086881548 -0.87300986 0.075597607 -0.84799784 0.1549402 -0.30866525 -0.13541666
16938765625 0.059501085 -0.15153587 -0.73896968 0.46057731 -0.69875747 0.50000286 -0.36090156 0.0023243399
16947043750 -0.018837182 -0.21849146 -0.44582173 0.73397005 -0.41391084 0.74838209 -0.33887327 0.15137209
16955321875 -0.15448858 -0.23533036 -0.066921793 0.83908743 -0.048310667 0.84502929 -0.25810716 0.27303964
16963600000 -0.3279475 -0.0692719 0.26708993 0.77999002 0.26702234 0.77972317 -0.16148736 0.34351653
16971878125 -0.34406021 0.082940355 0.57559967 0.57319683 0.57351893 0.60018831 -0.023213765 0.40378705
16980156250 -0.29425013 0.23195134 0.75345856 0.25659525 0.77912211 0.30123472 0.149343 0.41074029
16988434375 -0.18040124 0.35396531 0.77304435 -0.093974538 0.83688188 -0.058515944 0.33325422 0.33370924
16996712500 -0.011193449 0.41757986 0.64326018 -0.40896267 0.73700798 -0.4112218 0.47298127 0.16019771
17004990625 0.17865333 0.39159468 0.39848655 -0.62976009 0.49493933 -0.69488484 0.51052433 -0.072310157
17013268750 0.3367385 0.27570215 0.095240951 -0.72471052 0.14548798 -0.85099679 0.42833525 -0.29292494
17021546875 0.42164388 0.098869018 -0.21231648 -0.68825823 -0.24912882 -0.83252442 0.2597042 -0.44155726
17029825000 0.41828722 -0.091955855 -0.47449288 -0.53510457 -0.59431416 -0.63262904 0.062081646 -0.50108337
17038103125 0.33655733 -0.26077047 -0.65473318 -0.28703743 -0.80442619 -0.29358467 -0.13182631 -0.48736361
17046381250 0.19514732 -0.3829388 -0.71695149 0.016953731 -0.829593 0.09177351 -0.30995166 -0.41273358
17054659375 0.011873272 -0.43997341 -0.63971442 0.31897864 -0.68468285 0.42854664 -0.46238253 -0.27341014
17062937500 -0.18880142 -0.41636834 -0.44304401 0.55772966 -0.4235245 0.65332747 -0.55317819 -0.067328095
17071215625 -0.3693333 -0.30250424 -0.16844806 0.69075322 -0.11524253 0.74415803 -0.54388303 0.16936697
17079493750 -0.48605412 -0.11081003 0.13679138 0.70109248 0.18691503 0.71056551 -0.42888299 0.37981483
17087771875 -0.50410759 0.12058549 0.42338139 0.58302361 0.44703555 0.5748226 -0.2393609 0.5185141
17096050000 -0.44718444 0.3323741 0.6384539 0.35099763 0.63866395 0.35050866 -0.017716642 0.56735277
17104328125 -0.26590815 0.48966905 0.73415905 0.041872162 0.73838055 0.062446341 0.20484854 0.53867424
17112606250 -0.037100971 0.55677021 0.68375546 -0.28215301 0.71047997 -0.25218853 0.41177541 0.43090257
17120884375 0.2035609 0.52185833 0.49136832 -0.55327243 0.54621476 -0.53547508 0.57861727 0.23455876
17129162500 0.41125268 0.38455558 0.19835758 -0.7075929 0.27179608 -0.72496545 0.6505788 -0.041175302
17137440625 0.53833801 0.1651022 -0.12457328 -0.71269101 -0.061986271 -0.77825069 0.57542008 -0.33907813
17145718750 0.55239594 -0.089591011 -0.40861577 -0.58215058 -0.38812992 -0.68240052 0.35434344 -0.56407523
17153996875 0.45278081 -0.3168681 -0.60549277 -0.35403806 -0.64318633 -0.45785177 0.059390258 -0.64370316
17162275000 0.27295044 -0.47474211 -0.69355118 -0.069693543 -0.78580296 -0.14438806 -0.21403989 -0.57746136
17170553125 0.049369358 -0.54584557 -0.65385085 0.22687574 -0.78307652 0.2129126 -0.40755877 -0.41941929
17178831250 -0.18492915 -0.52048218 -0.49237218 0.47275403 -0.61149287 0.54136372 -0.51471889 -0.22906183
17187109375 -0.39056545 -0.39676949 -0.25173411 0.62104917 -0.29935691 0.74957705 -0.56167561 -0.029436957
17195387500 -0.52348429 -0.19493835 0.012077979 0.66342849 0.057514179 0.78016901 -0.55244172 0.18430659
17203665625 -0.55500305 0.048192717 0.27199474 0.61360228 0.36571032 0.65680552 -0.4585312 0.4053331
17211943750 -0.4714964 0.27779222 0.50803053 0.47095418 0.57815582 0.44064853 -0.26151893 0.58335769
17220221875 -0.2967993 0.43479204 0.68688405 0.23101288 0.69318682 0.18094985 0.011623585 0.65680677
17228500000 -0.1316072 0.52487832 0.73018545 -0.11125282 0.7295475 -0.11209479 0.23617774 0.49543563
17236778125 0.088896349 0.51572633 0.63056618 -0.42878741 0.63706547 -0.40129715 0.40718147 0.3426879
17245056250 0.28188547 0.43560106 0.38132527 -0.67893976 0.42822468 -0.64667308 0.49483061 0.14933251
17253334375 0.44820416 0.28869459 0.035231702 -0.77961582 0.11539771 -0.79262286 0.51037687 -0.047231112
17261612500 0.55155671 0.055287369 -0.30787492 -0.705082 -0.24855661 -0.77839077 0.46658009 -0.23869227
17269890625 0.51764435 -0.22606005 -0.5655483 -0.49834225 -0.56797272 -0.59275883 0.35355037 -0.42087543
17278168750 0.3283262 -0.45057073 -0.71216315 -0.22449543 -0.76358515 -0.29042542 0.15481958 -0.55691791
17286446875 0.051228769 -0.52872777 -0.75133234 0.08091487 -0.81275749 0.055598859 -0.10956515 -0.58800673
17294725000 -0.19985968 -0.44558153 -0.67325532 0.39398998 -0.72519183 0.38901168 -0.36695427 -0.47682944
17303003125 -0.3412421 -0.26685128 -0.45613709 0.6696294 -0.50914603 0.67099375 -0.52813107 -0.2455724
17311281250 -0.36626381 -0.089638181 -0.11351369 0.8253352 -0.17563574 0.84818202 -0.53778034 0.020123247
17319559375 -0.33478969 0.038710751 0.27057859 0.79388201 0.22296122 0.85799432 -0.42315707 0.21945152
17327837500 -0.291987 0.1399883 0.58551872 0.59022337 0.58762711 0.67196345 -0.26922765 0.31540179
17336115625 -0.22105613 0.23899683 0.77068686 0.28467172 0.81832802 0.33983323 -0.13395347 0.34723634
17344393750 -0.098556228 0.30817503 0.81601042 -0.057347827 0.87108791 -0.046766941 -0.0089605208 0.35162345
17352671875 0.049817365 0.30139908 0.72615874 -0.38937777 0.75674611 -0.40477189 0.1200314 0.31698322
17360950000 0.16359861 0.21817507 0.50998753 -0.66784626 0.51058716 -0.66871327 0.22534753 0.22525494
17369228125 0.20564429 0.10642551 0.18212317 -0.83836263 0.1873568 -0.81714797 0.27409276 0.10460381
17377506250 0.19948703 0.016833156 -0.20386569 -0.85459852 -0.1657192 -0.82789266 0.2595734 -0.003423132
17385784375 0.18602501 -0.059594952 -0.57316554 -0.6896283 -0.50563329 -0.69672489 0.21909097 -0.067236885
17394062500 0.143479 -0.1570233 -0.83152056 -0.3623144 -0.77398908 -0.42047313 0.19724485 -0.1048234
17402340625 0.017554428 -0.23395361 -0.90184796 0.047256175 -0.88916337 -0.038209826 0.19086584 -0.16525264
17410618750 -0.15874365 -0.19599755 -0.78274173 0.42880499 -0.81711185 0.34926912 0.14494759 -0.26199573
17418896875 -0.26146525 -0.021367386 -0.52651936 0.71108431 -0.59856153 0.66124356 0.018027028 -0.33917773
17427175000 -0.190239 0.18408996 -0.18574524 0.87273949 -0.27485332 0.87222266 -0.15705794 -0.31955451
17435453125 0.02437062 0.25659785 0.20695305 0.88678831 0.13958576 0.94209772 -0.28279638 -0.18369257
17443731250 0.20826292 0.12372258 0.58530629 0.71730018 0.57513219 0.79399151 -0.27522627 -0.013875845
17452009375 0.20438792 -0.092069738 0.84660363 0.38127294 0.88531953 0.42808002 -0.17105161 0.061558489
17460287500 0.043976456 -0.19769911 0.92043436 -0.028733462 0.96083248 -0.028597664 -0.1092751 0.018639259
17468565625 -0.10077062 -0.13787241 0.81436563 -0.42209044 0.82442182 -0.44049993 -0.16711998 -0.022559667
17476843750 -0.11688484 -0.025864813 0.55001175 -0.73994106 0.53724116 -0.74271673 -0.26869035 0.057033885
17485121875 -0.051732868 -0.00029289239 0.15553273 -0.90652007 0.14989711 -0.88556641 -0.26777506 0.24537843
17493400000 -0.19845152 -0.11652389 -0.21966144 -0.82077634 -0.21992752 -0.82053047 -0.033488326 0.29651138
17501678125 -0.26877993 -0.031628322 -0.5358727 -0.6407885 -0.53378367 -0.64406753 0.099391907 0.29376164
17509956250 -0.29112417 0.11190078 -0.74434137 -0.3554233 -0.7490167 -0.35812509 0.20770103 0.22699618
17518234375 -0.2174222 0.26269701 -0.82155114 -0.017061329 -0.82708234 -0.0071702213 0.26895648 0.13654649
17526512500 -0.064435855 0.34740105 -0.76095963 0.32581279 -0.74712938 0.34433141 0.30433726 0.051579867
17534790625 0.10137295 0.3354553 -0.56236601 0.62708247 -0.52307642 0.62539917 0.33979291 -0.044891708
17543068750 0.2243055 0.25957042 -0.23878106 0.8275789 -0.20611548 0.77966654 0.35493368 -0.18842398
17551346875 0.30721247 0.16491981 0.16213641 0.8592568 0.13942334 0.78567922 0.28586745 -0.37179288
17559625000 0.37507424 0.047138315 0.53632504 0.68511575 0.45118472 0.65215975 0.095769756 -0.51876956
17567903125 0.40626147 -0.12268521 0.77025253 0.35666153 0.68077278 0.40605485 -0.1727328 -0.53720772
17576181250 0.33971053 -0.32400152 0.81553292 -0.018022247 0.79535294 0.086630523 -0.4139705 -0.39922225
17584459375 0.15581265 -0.47791049 0.70471364 -0.34600285 0.77016199 -0.26444903 -0.53850222 -0.16330154
17592737500 -0.095327906 -0.51043087 0.4893361 -0.58788365 0.58601916 -0.58657438 -0.53182817 0.07740891
17601015625 -0.32766291 -0.40661219 0.20516255 -0.73106509 0.25874713 -0.79394042 -0.43952009 0.26789713
17609293750 -0.46962821 -0.20839152 -0.11937065 -0.75065595 -0.13056467 -0.81327397 -0.30142036 0.40490243
17617571875 -0.50309736 0.014557888 -0.4296774 -0.62597084 -0.4660998 -0.64733404 -0.12589829 0.49229047
17625850000 -0.47806761 0.21117215 -0.64646661 -0.37366238 -0.64694542 -0.37373322 0.10526703 0.52792692
17634128125 -0.35699898 0.392728 -0.72849053 -0.063224122 -0.72282541 -0.071804263 0.31324437 0.43422568
17642406250 -0.16131029 0.51903778 -0.67390275 0.23826151 -0.67872578 0.22149491 0.45615244 0.26255646
17650684375 0.085040078 0.54625738 -0.51231802 0.48308945 -0.53205377 0.47433603 0.51052403 0.056997772
17658962500 0.32001498 0.45000234 -0.27552295 0.6457063 -0.29543564 0.6557532 0.48120275 -0.13856651
17667240625 0.47650731 0.25758114 0.0086444868 0.70984554 0.0056156195 0.73025066 0.39561391 -0.29975417
17675518750 0.52431482 0.032698642 0.30789033 0.65708351 0.32189927 0.66475838 0.2736426 -0.4310514
17683796875 0.48379493 -0.17005882 0.57408601 0.47242135 0.57985932 0.45924398 0.10320442 -0.53934139
17692075000 0.3911342 -0.33880556 0.73601472 0.16956589 0.71448249 0.16057716 -0.13949774 -0.58664125
17700353125 0.2481136 -0.4831484 0.72786063 -0.1804606 0.70263082 -0.15635739 -0.42209038 -0.50137973
17708631250 0.035554554 -0.58083504 0.55606592 -0.47124511 0.56323463 -0.42393568 -0.6401729 -0.25481313
17716909375 -0.23196705 -0.57404971 0.29257396 -0.63758749 0.34147641 -0.60762757 -0.69481558 0.082234085
17725187500 -0.4851059 -0.42680159 0.01076935 -0.6806283 0.071439125 -0.69699353 -0.56635433 0.3913849
17733465625 -0.63840514 -0.1593072 -0.25430846 -0.62281644 -0.22388387 -0.68141884 -0.31532311 0.58051342
17741743750 -0.6349234 0.1538302 -0.48363182 -0.47472534 -0.50578183 -0.53688419 -0.035050664 0.61934799
17750021875 -0.47657603 0.4170168 -0.64688915 -0.24171835 -0.70430136 -0.26467329 0.19661824 0.5423184
17758300000 -0.25650558 0.49594086 -0.7215929 0.096706666 -0.72203416 0.097438045 0.35463732 0.43913093
17766578125 -0.019962233 0.5493713 -0.60474378 0.39496055 -0.59852755 0.38723433 0.49044994 0.25096795
17774856250 0.21859092 0.49659392 -0.37507516 0.60703707 -0.37654811 0.58734316 0.54192245 0.030337594
17783134375 0.40858832 0.34320179 -0.087048307 0.69911873 -0.10656434 0.67986959 0.50090843 -0.18942441
17791412500 0.50651377 0.12474318 0.20668855 0.66964287 0.17303133 0.66538602 0.37514424 -0.36932924
17799690625 0.49597403 -0.10321647 0.46375838 0.52851433 0.43001217 0.54759008 0.19319233 -0.47682413
17807968750 0.39521733 -0.2908113 0.64693367 0.29282686 0.62860572 0.33203682 -0.0055147917 -0.50040382
17816246875 0.24035737 -0.41413641 0.71864277 -0.005588925 0.72613561 0.041183695 -0.18689048 -0.45091942
17824525000 0.059139781 -0.47021964 0.65448081 -0.31136492 0.69114971 -0.2769556 -0.33665153 -0.34771299
17832803125 -0.1319273 -0.45739144 0.46566144 -0.56174505 0.51526517 -0.55696607 -0.44674623 -0.19664171
17841081250 -0.31057081 -0.36479554 0.19011386 -0.71075279 0.22912994 -0.73554087 -0.49600288 -0.0019921374
17849359375 -0.4351154 -0.19433548 -0.12528685 -0.73692143 -0.11222886 -0.77463627 -0.45441091 0.21153294
17857637500 -0.46361277 0.019330908 -0.43471289 -0.62969279 -0.44269323 -0.65998769 -0.30949965 0.38764042
17865915625 -0.38351068 0.21460281 -0.68074155 -0.39079872 -0.69821984 -0.40724015 -0.095046684 0.46884197
17874193750 -0.22944081 0.33676472 -0.80135953 -0.052739255 -0.81743306 -0.056824937 0.11889365 0.43170789
17882471875 -0.0554161 0.37251481 -0.75247055 0.3155975 -0.76200652 0.31747892 0.2699239 0.31002837
17890750000 0.1045417 0.33761957 -0.53254235 0.62244302 -0.53198677 0.62255335 0.33832374 0.16625306
17899028125 0.23806186 0.2458373 -0.19643477 0.7913267 -0.19719695 0.78399545 0.35690814 0.02527401
17907306250 0.31949192 0.096023612 0.17113346 0.78634202 0.16145197 0.7757321 0.33053046 -0.10757709
17915584375 0.30873448 -0.079534993 0.48675627 0.62576818 0.46570718 0.62071246 0.25660491 -0.2229574
17923862500 0.20053165 -0.21358787 0.69964957 0.35803145 0.67099255 0.36627719 0.13828795 -0.2950756
17932140625 0.046982717 -0.24895751 0.7851243 0.031050719 0.75915718 0.060186379 0.0049605607 -0.3007732
17940418750 -0.070844777 -0.1890486 0.73084563 -0.30636486 0.7239089 -0.25748262 -0.10030288 -0.24484086
17948696875 -0.10736884 -0.097506255 0.53468645 -0.5976932 0.56205755 -0.54414803 -0.14929916 -0.16263188
17956975000 -0.086437665 -0.040252782 0.22402537 -0.77791506 0.28586975 -0.7480672 -0.1522218 -0.098826624
17965253125 -0.066329926 -0.026323527 -0.13700405 -0.80210388 -0.065813988 -0.81724542 -0.14856735 -0.067917168
17973531250 -0.069211081 -0.015412575 -0.47406414 -0.66741681 -0.42522764 -0.72132427 -0.16616179 -0.043966748
17981809375 -0.065816417 0.017304787 -0.721416 -0.39957649 -0.71197921 -0.46833885 -0.1914639 0.0066029448
17990087500 -0.02556384 0.044416729 -0.83103192 -0.045901939 -0.86008 -0.10423712 -0.18882619 0.083044998
17998365625 0.029314807 0.023979537 -0.77425241 0.32486162 -0.82608587 0.2976844 -0.1444959 0.15318342
18006643750 0.044561852 -0.040525232 -0.55782974 0.63524699 -0.60429859 0.6444838 -0.077321731 0.19401817
18014921875 -0.001799515 -0.095447093 -0.22514325 0.8212539 -0.24382876 0.8467837 -0.009351436 0.2113784
18023200000 -0.076078266 -0.097360231 0.16417804 0.84893513 0.16538492 0.84848994 0.064313643 0.21604326
18031478125 -0.12733485 -0.048843738 0.52968866 0.69142973 0.51918924 0.67111886 0.15395911 0.19696054
18039756250 -0.14653166 0.0057622632 0.78845978 0.37888759 0.74373072 0.36318094 0.24323229 0.12763208
18048034375 -0.16021876 0.062346436 0.86724001 -0.021015989 0.80649894 0.004599371 0.28908435 0.010893384
18056312500 -0.15936324 0.15290493 0.74948925 -0.40276149 0.71643502 -0.33094233 0.26719323 -0.11036845
18064590625 -0.08510828 0.26890415 0.4799408 -0.67439371 0.50370204 -0.59410089 0.19899544 -0.19310358
18072868750 0.086781137 0.32859349 0.13669905 -0.79114634 0.20247798 -0.7482447 0.12764621 -0.23282519
18081146875 0.28610596 0.25226286 -0.20394072 -0.75270057 -0.13835689 -0.75737226 0.071778998 -0.26180363
18089425000 0.39896974 0.054438855 -0.48558116 -0.58776259 -0.44703472 -0.61682379 0.0052255238 -0.30672657
18097703125 0.3670072 -0.16803144 -0.67608047 -0.33628517 -0.65558171 -0.36057955 -0.11300934 -0.34386352
18105981250 0.22337778 -0.31561548 -0.75627947 -0.03127465 -0.73326385 -0.053773135 -0.28010422 -0.31373227
18114259375 0.055285502 -0.3572323 -0.70934987 0.28931341 -0.68488896 0.24890958 -0.43710244 -0.17491387
18122537500 -0.080576397 -0.33488414 -0.52350575 0.57152927 -0.52556765 0.5096153 -0.50286508 0.055462018
18130815625 -0.19481257 -0.29253879 -0.22374874 0.74547321 -0.27012414 0.69194746 -0.42734495 0.30085051
18139093750 -0.31392974 -0.21815957 0.1197818 0.76352996 0.052223228 0.75552791 -0.22870411 0.46792307
18147371875 -0.41484222 -0.076580741 0.42742413 0.63428199 0.38482863 0.66835099 0.014198308 0.505032
18155650000 -0.4631688 0.10199395 0.65359092 0.40247333 0.65318388 0.40264979 0.19045684 0.46046066
18163928125 -0.38151422 0.30712074 0.767133 0.095804602 0.75173765 0.068279564 0.36801907 0.34418836
18172206250 -0.20557316 0.446475 0.74885559 -0.24289411 0.68671566 -0.26272702 0.49121934 0.16447148
18180484375 0.005747824 0.48524439 0.57613963 -0.55846846 0.48982769 -0.51548266 0.5270732 -0.063735537
18188762500 0.19916165 0.44126123 0.26305643 -0.76407272 0.22381884 -0.64971167 0.45013344 -0.28718498
18197040625 0.37114614 0.34010133 -0.11492266 -0.78942442 -0.055451207 -0.66803539 0.27973348 -0.44487816
18205318750 0.51483071 0.164768 -0.44238839 -0.63137597 -0.3137522 -0.58661604 0.069381624 -0.50402611
18213596875 0.57255626 -0.09198907 -0.64063317 -0.36176592 -0.52987492 -0.41451102 -0.1286952 -0.47267297
18221875000 0.48369029 -0.36695507 -0.70125449 -0.064144887 -0.66553777 -0.15732279 -0.2840358 -0.37734425
18230153125 0.25879472 -0.56025666 -0.65020537 0.20989269 -0.67770612 0.14640665 -0.39137182 -0.25075987
18238431250 -0.027627068 -0.60973561 -0.5136205 0.44023347 -0.5449304 0.42812186 -0.46172193 -0.10377932
18246709375 -0.28348774 -0.51708132 -0.30410722 0.61202145 -0.30160466 0.61416721 -0.49550524 0.072846621
18254987500 -0.44983894 -0.33677182 -0.031938706 0.69860005 -0.014125057 0.67058152 -0.45969176 0.28200907
18263265625 -0.52095556 -0.13259687 0.27062854 0.6626327 0.25930145 0.6083414 -0.31574017 0.48628581
18271543750 -0.52439028 0.063480072 0.53334427 0.48939925 0.48114908 0.45044804 -0.063646249 0.60821593
18279821875 -0.47043025 0.25754976 0.68955964 0.21754156 0.62689847 0.21814927 0.23545265 0.58149797
18288100000 -0.33953351 0.44141969 0.72020602 -0.086995877 0.71959388 -0.087257378 0.43540758 0.36506754
18296378125 -0.11866339 0.55659431 0.62706232 -0.37496907 0.61278927 -0.39365634 0.54009634 0.13853914
18304656250 0.14425214 0.55240327 0.42878762 -0.60896081 0.37709427 -0.62516564 0.53685099 -0.095866755
18312934375 0.36957142 0.42179036 0.1435014 -0.7552973 0.061390158 -0.72231448 0.44779766 -0.29612678
18321212500 0.49898097 0.21404903 -0.20141105 -0.77053511 -0.25738266 -0.66186321 0.29337871 -0.44636917
18329490625 0.53035963 -0.0060818796 -0.53797525 -0.61825919 -0.50228345 -0.47361362 0.090571165 -0.52734035
18337768750 0.48833898 -0.2141073 -0.7664845 -0.31101471 -0.63381261 -0.21630539 -0.13200445 -0.51720887
18346046875 0.3720423 -0.40788272 -0.81660366 0.066398256 -0.65276122 0.055209737 -0.33086038 -0.41138315
18354325000 0.16651975 -0.54709268 -0.69113004 0.40548646 -0.57470173 0.30431044 -0.46222582 -0.2321897
18362603125 -0.098868869 -0.57245386 -0.44661471 0.64336044 -0.41319385 0.50918776 -0.50095946 -0.018921211
18370881250 -0.34562984 -0.45875853 -0.14316233 0.75983196 -0.18084428 0.64701265 -0.44728726 0.18166773
18379159375 -0.49559152 -0.2408119 0.17709677 0.75286621 0.10293325 0.68770039 -0.32370642 0.33368704
18387437500 -0.5147683 0.0043226327 0.47659916 0.62068498 0.39847779 0.60087943 -0.15941732 0.4214133
18395715625 -0.4265779 0.20243591 0.70226532 0.36936986 0.63942206 0.38108492 0.020308664 0.44208607
18403993750 -0.28721893 0.32756793 0.79925185 0.035336435 0.76005381 0.06370946 0.19575907 0.39262775
18412271875 -0.13076989 0.39282644 0.7383346 -0.30769959 0.72369969 -0.28142729 0.3380864 0.27358109
18420550000 0.041151822 0.40354115 0.54041302 -0.58571273 0.53974557 -0.58555162 0.41631392 0.10394724
18428828125 0.20881508 0.33845273 0.24959192 -0.75872618 0.22863853 -0.77035087 0.40912619 -0.079390913
18437106250 0.33416566 0.1990141 -0.08384347 -0.80194068 -0.13570586 -0.79804087 0.32092673 -0.22808832
18445384375 0.37105426 0.0142727 -0.41102001 -0.70691913 -0.47701007 -0.65634018 0.19067898 -0.31041437
18453662500 0.31009126 -0.15262917 -0.68199742 -0.48502234 -0.71742338 -0.37527272 0.060321413 -0.33199912
18461940625 0.18668748 -0.25154832 -0.8479802 -0.15788721 -0.80165547 -0.020053573 -0.055329479 -0.31528309
18470218750 0.056994926 -0.27281293 -0.85981381 0.23177077 -0.71967715 0.32684529 -0.16169395 -0.2678704
18478496875 -0.04495855 -0.2458178 -0.68780988 0.6039142 -0.50364417 0.59365577 -0.2499 -0.17916098
18486775000 -0.12097356 -0.19759445 -0.34855688 0.86296868 -0.20506625 0.74242663 -0.29157424 -0.053843923
18495053125 -0.17910174 -0.12839814 0.075734749 0.93365031 0.11987086 0.75827754 -0.26590413 0.073201351
18503331250 -0.20361127 -0.032276113 0.48408407 0.80122089 0.4259131 0.64549863 -0.18649052 0.16051126
18511609375 -0.16824001 0.066697769 0.78771162 0.50024408 0.66834599 0.41399017 -0.093649983 0.18934934
18519887500 -0.081435867 0.12062157 0.92117631 0.098637976 0.79771549 0.093258925 -0.025944745 0.17734019
18528165625 0.0097280759 0.10578123 0.85899371 -0.31586424 0.77486843 -0.26766509 0.011207873 0.16087034
18536443750 0.058362741 0.04531106 0.62327719 -0.64979428 0.59053844 -0.59020591 0.041678105 0.15958881
18544721875 0.056732953 -0.017831784 0.27336186 -0.84086037 0.27332526 -0.80203509 0.089936607 0.15922248
18553000000 0.026543148 -0.062152296 -0.11434693 -0.8590306 -0.11475339 -0.85802674 0.15204133 0.13563925
18561278125 -0.024790071 -0.077255525 -0.46179637 -0.71787578 -0.48917902 -0.72156596 0.19944686 0.079296239
18569556250 -0.083669104 -0.060542278 -0.71279937 -0.44885993 -0.76285636 -0.42488888 0.21896473 0.008868156
18577834375 -0.1318288 -0.0043417295 -0.82727969 -0.1089177 -0.86938155 -0.036267322 0.21655457 -0.05975461
18586112500 -0.14074568 0.08445698 -0.79501033 0.24586277 -0.78291875 0.35349011 0.19908381 -0.12898727
18594390625 -0.089239247 0.17412838 -0.61995876 0.55837363 -0.53283799 0.65421647 0.15769564 -0.20267729
18602668750 0.013698296 0.22309867 -0.32850209 0.7735939 -0.1871991 0.80255902 0.079343744 -0.26573834
18610946875 0.13160913 0.20696744 0.035358101 0.84667504 0.17387201 0.78554899 -0.031724166 -0.29200459
18619225000 0.22650497 0.13435312 0.40247446 0.75449544 0.47984317 0.62431747 -0.14903916 -0.26515126
18627503125 0.2815308 0.026608927 0.69804955 0.50374109 0.68601489 0.35880899 -0.24509925 -0.19083914
18635781250 0.28929484 -0.10217743 0.84853959 0.14094724 0.76434761 0.037330482 -0.30612007 -0.086339958
18644059375 0.23666748 -0.23710941 0.81591409 -0.24828552 0.70535105 -0.28375843 -0.32948661 0.03432991
18652337500 0.11226214 -0.34506765 0.61309612 -0.57557613 0.5188911 -0.55129403 -0.31033248 0.16589878
18660615625 -0.064158864 -0.37953579 0.29517651 -0.77274835 0.24058859 -0.71748352 -0.23767649 0.29545432
18668893750 -0.24293263 -0.31809774 -0.069739632 -0.81160009 -0.083790086 -0.75552291 -0.10301991 0.39630574
18677171875 -0.3711547 -0.175331 -0.41115287 -0.68860006 -0.39901885 -0.65335238 0.080173433 0.42940423
18685450000 -0.42590898 -0.011562831 -0.6543839 -0.42953941 -0.65473968 -0.42926508 0.27069223 0.37547854
18693728125 -0.39882183 0.17703703 -0.75404131 -0.097562566 -0.78316599 -0.10279108 0.41494766 0.23105489
18702006250 -0.29147846 0.34586498 -0.69949728 0.22663079 -0.75332087 0.25435352 0.48139524 0.040996883
18710284375 -0.10889055 0.45677647 -0.52296782 0.4820143 -0.55908674 0.56392771 0.46623173 -0.15751989
18718562500 0.11558175 0.46742561 -0.27292326 0.63567579 -0.2435476 0.7451812 0.37741029 -0.33873174
18726840625 0.31801984 0.36584562 0.0036985807 0.68188828 0.10750023 0.75699562 0.21913481 -0.47962832
18735118750 0.44040367 0.18487611 0.27751702 0.62459451 0.41117206 0.61685205 0.0015954935 -0.54903466
18743396875 0.46381024 -0.012675584 0.51612258 0.46330339 0.6121099 0.37685961 -0.2373742 -0.51419967
18751675000 0.41639319 -0.18254566 0.67710531 0.20445317 0.69587272 0.090447165 -0.44209924 -0.36880413
18759953125 0.32868263 -0.32340431 0.7067914 -0.11441727 0.6620512 -0.19717331 -0.55694973 -0.14349249
18768231250 0.19751365 -0.44340298 0.58290082 -0.41225049 0.52202189 -0.44421613 -0.55593538 0.10058989
18776509375 0.0040867198 -0.51777613 0.34217069 -0.61567277 0.2966454 -0.61744833 -0.45605981 0.30803895
18784787500 -0.22935835 -0.49637306 0.051246811 -0.69384068 0.020121947 -0.68802118 -0.29681316 0.44916633
18793065625 -0.44196308 -0.35348174 -0.24107508 -0.65080577 -0.26695794 -0.64031237 -0.10547959 0.52507681
18801343750 -0.55974978 -0.11551483 -0.49498528 -0.49571887 -0.51361328 -0.4774743 0.1040312 0.53293949
18809621875 -0.54598427 0.14863196 -0.67087823 -0.24166888 -0.67289394 -0.22346903 0.31330812 0.45760775
18817900000 -0.4136894 0.36675209 -0.7161513 0.081294641 -0.7156471 0.08155971 0.50559771 0.26831898
18826178125 -0.20674539 0.50019652 -0.60896707 0.39319083 -0.62331879 0.37685701 0.58375406 0.03609243
18834456250 0.026397496 0.53772479 -0.36264285 0.61860889 -0.41369873 0.6141389 0.54937059 -0.21199647
18842734375 0.25998583 0.48415557 -0.049774598 0.69682556 -0.11384437 0.74826604 0.41018492 -0.41661227
18851012500 0.46082538 0.32627153 0.24330223 0.6276179 0.23059386 0.73717225 0.20421007 -0.53720212
18859290625 0.5659107 0.079475187 0.46231186 0.45634833 0.54195899 0.55887282 -0.021859815 -0.56323224
18867568750 0.53342235 -0.18526118 0.59184545 0.23341021 0.73085713 0.25316185 -0.23521335 -0.5099687
18875846875 0.38040623 -0.38826609 0.6347599 -0.014226134 0.74812698 -0.09577807 -0.42243299 -0.38062549
18884125000 0.16951017 -0.48409879 0.59103286 -0.26736969 0.61488479 -0.39551282 -0.55455929 -0.17478222
18892403125 -0.033320673 -0.47628364 0.44619972 -0.50111324 0.38445598 -0.59449077 -0.58177739 0.085590228
18900681250 -0.19247308 -0.40462396 0.19731064 -0.66533422 0.11183902 -0.68233186 -0.47765967 0.33538005
18908959375 -0.31184512 -0.3030915 -0.1140348 -0.70083266 -0.16130273 -0.66641092 -0.26920322 0.4995634
18917237500 -0.40503922 -0.16920851 -0.41285563 -0.58697981 -0.41219649 -0.55687952 -0.020951973 0.5415538
18925515625 -0.45130673 0.010197308 -0.62748486 -0.35559702 -0.61592895 -0.35773113 0.19765946 0.47186181
18933793750 -0.4076587 0.21449761 -0.725658 -0.059589516 -0.73602897 -0.076737151 0.34611461 0.33443287
18942071875 -0.25751784 0.38070673 -0.69688988 0.25660953 -0.72453409 0.25504985 0.42390686 0.17470126
18950350000 -0.042625085 0.4511188 -0.53941005 0.55189872 -0.53941232 0.55150986 0.4800626 0.019412082
18958628125 0.1644334 0.39378726 -0.24797273 0.75264883 -0.25168875 0.7423895 0.45377254 -0.16944273
18966906250 0.30041522 0.26768991 0.12194343 0.79948837 0.09258581 0.78714579 0.34694761 -0.34266612
18975184375 0.37518108 0.12308068 0.4768194 0.65777725 0.42562875 0.68266875 0.1647552 -0.45377234
18983462500 0.40650615 -0.042608541 0.71451926 0.36185056 0.6901322 0.44222224 -0.050757691 -0.46089256
18991740625 0.36342719 -0.23064552 0.77854472 0.0083378181 0.83191854 0.10082836 -0.22927617 -0.36366287
19000018750 0.21453145 -0.38839111 0.6879831 -0.31536198 0.80538875 -0.28507903 -0.32317063 -0.21183561
19008296875 -0.007561998 -0.43773109 0.48929197 -0.56058806 0.59814942 -0.62512344 -0.33902177 -0.070298865
19016575000 -0.21255189 -0.34772497 0.2202386 -0.70909226 0.25202036 -0.82688671 -0.32067367 0.040850475
19024853125 -0.31041485 -0.16662548 -0.08950559 -0.74493557 -0.14173716 -0.84107023 -0.28793362 0.14402577
19033131250 -0.27948189 0.0019283773 -0.39714888 -0.65304428 -0.48348317 -0.68319291 -0.21966416 0.24896954
19041409375 -0.18474944 0.08426372 -0.64890051 -0.43357193 -0.71427333 -0.40681589 -0.095997088 0.32416889
19049687500 -0.11206283 0.094548389 -0.78842986 -0.11890487 -0.81139207 -0.073246263 0.057059091 0.32678437
19057965625 -0.076584987 0.098502815 -0.77951616 0.2351951 -0.77044237 0.26605973 0.18166301 0.2489213
19066243750 -0.031291191 0.11569163 -0.61203992 0.56109995 -0.59798241 0.56802022 0.23517956 0.13264398
19074521875 0.040409625 0.10156105 -0.31149673 0.7840988 -0.31208998 0.78191096 0.22233906 0.038017504
19082800000 0.12022357 0.018440122 0.057554029 0.85596448 0.058179464 0.85643005 0.23402323 0.024040416
19091078125 0.097868495 -0.06186429 0.42916113 0.75630546 0.4291718 0.76091349 0.23355909 -0.04140259
19099356250 0.022168722 -0.097156145 0.72781783 0.50177169 0.72974706 0.50648928 0.21722627 -0.11707453
19107634375 -0.048597924 -0.062146142 0.89113402 0.13041255 0.89238542 0.13441759 0.16348076 -0.19261943
19115912500 -0.063580699 0.0066512134 0.86631221 -0.28580919 0.86916047 -0.27944246 0.074581794 -0.23462807
19124190625 -0.03006034 0.053819314 0.64661849 -0.64916211 0.65570253 -0.64282715 -0.01656088 -0.22605596
19132468750 0.0089869434 0.06524206 0.28388354 -0.86555523 0.29732552 -0.87035811 -0.076741643 -0.18754557
19140746875 0.035764661 0.07037849 -0.13253114 -0.89462227 -0.127446 -0.90781391 -0.10937925 -0.15574102
19149025000 0.077621497 0.082303002 -0.51090103 -0.7324034 -0.51689464 -0.74205804 -0.14991009 -0.13927655
19157303125 0.1505198 0.065575726 -0.76670712 -0.42170089 -0.77399898 -0.42328039 -0.21735558 -0.10384671
19165581250 0.21724047 -0.01469538 -0.85019916 -0.043259043 -0.85437357 -0.041519094 -0.28279302 -0.013067058
19173859375 0.22198702 -0.13975063 -0.7652539 0.31254634 -0.76940966 0.31584898 -0.29525068 0.1247346
19182137500 0.14702885 -0.25437298 -0.55510646 0.58845389 -0.55616206 0.594347 -0.22838876 0.26318091
19190415625 0.019095637 -0.3118526 -0.26239151 0.75548208 -0.25821459 0.76082087 -0.097937264 0.35351223
19198693750 -0.11866252 -0.30099627 0.070201412 0.79508829 0.076411121 0.79466003 0.055677902 0.37351936
19206971875 -0.23931113 -0.23265463 0.39612377 0.69409603 0.39802921 0.69009358 0.19847919 0.33161888
19215250000 -0.333242 -0.11968757 0.65700865 0.46852401 0.65733677 0.46768287 0.31691918 0.24760415
19223528125 -0.36975116 0.041521858 0.79694223 0.1500517 0.79753053 0.15006961 0.40276629 0.12021098
19231806250 -0.3281574 0.21919326 0.79132253 -0.20134437 0.79192346 -0.20216054 0.44162759 -0.041881215
19240084375 -0.19738619 0.36890858 0.63696247 -0.52228659 0.63599092 -0.5236243 0.41095746 -0.22435085
19248362500 0.00088381127 0.44062981 0.35370326 -0.75258493 0.35240769 -0.7515983 0.2944113 -0.39090908
19256640625 0.21299821 0.40597838 -0.0068790405 -0.83615375 -0.0074972734 -0.83533674 0.10444208 -0.4922255
19264918750 0.38396543 0.27762803 -0.37157348 -0.7518391 -0.37363279 -0.75273407 -0.11593209 -0.49804723
19273196875 0.48017305 0.090429679 -0.6623776 -0.51262742 -0.66707486 -0.51097846 -0.31668475 -0.40660092
19281475000 0.48984268 -0.1183793 -0.81329072 -0.16958512 -0.81680554 -0.16295959 -0.46044484 -0.24167952
19289753125 0.41117686 -0.31746286 -0.79232049 0.1995164 -0.79010707 0.20963 -0.52690691 -0.03003007
19298031250 0.25228947 -0.46888706 -0.61549163 0.50918579 -0.60529935 0.51826704 -0.50143737 0.19562747
19306309375 0.037055735 -0.53925222 -0.33426565 0.70557535 -0.3170073 0.7074163 -0.37958136 0.39657897
19314587500 -0.19083788 -0.50760168 -0.0091546131 0.76497811 0.0083400616 0.75354451 -0.17811288 0.52483827
19322865625 -0.38142359 -0.38067609 0.30232137 0.68997109 0.30860204 0.66883475 0.055851776 0.55127072
19331143750 -0.50051951 -0.18441211 0.5535205 0.49838647 0.54470068 0.48004887 0.27139583 0.47818229
19339421875 -0.52519667 0.0431225 0.70275348 0.22616324 0.68947351 0.21950057 0.43215272 0.33291087
19347700000 -0.45303705 0.26106074 0.73011315 -0.080196545 0.72949845 -0.080341242 0.52749443 0.14714776
19355978125 -0.29246798 0.43659633 0.63241285 -0.36665314 0.63613218 -0.37601283 0.54873902 -0.058720775
19364256250 -0.066089392 0.52615422 0.43307346 -0.59210008 0.42600024 -0.61045414 0.49569678 -0.26402605
19372534375 0.17843199 0.50366622 0.15686446 -0.72459692 0.13180898 -0.73682129 0.36214337 -0.44713449
19380812500 0.38250622 0.37718934 -0.15813518 -0.7396661 -0.18884303 -0.72876465 0.15236069 -0.56793374
19389090625 0.50506008 0.18464792 -0.46514136 -0.6182313 -0.4803091 -0.58841044 -0.10375395 -0.5878458
19397368750 0.54200113 -0.028656149 -0.70162237 -0.36413798 -0.69113165 -0.33627191 -0.35024771 -0.48585731
19405646875 0.50195718 -0.23632823 -0.7992208 -0.020880183 -0.78363007 -0.011669814 -0.52607101 -0.28156471
19413925000 0.38662949 -0.42371827 -0.72768778 0.33150125 -0.72381806 0.33410972 -0.58761829 -0.020555789
19422203125 0.19381049 -0.56007665 -0.50858152 0.60892963 -0.509857 0.62486571 -0.52705359 0.23306116
19430481250 -0.056487978 -0.6024037 -0.19945551 0.75939703 -0.18240227 0.78582388 -0.36798468 0.42623103
19438759375 -0.31191194 -0.51950306 0.13782088 0.76826948 0.17878474 0.77941465 -0.15275997 0.53046703
19447037500 -0.49951079 -0.31659308 0.44684502 0.63775444 0.48873794 0.61706179 0.076601133 0.53617948
19455315625 -0.55988824 -0.050835051 0.67452204 0.38931447 0.69056129 0.34782562 0.27883148 0.45125639
19463593750 -0.48600253 0.19552636 0.77442682 0.065227039 0.76363355 0.031616449 0.4237816 0.30093747
19471871875 -0.32308671 0.36503154 0.72406077 -0.27004018 0.70731634 -0.28158942 0.49549967 0.1164662
19480150000 -0.11046562 0.45087972 0.53241789 -0.54460555 0.53222513 -0.54464102 0.49348414 -0.070699945
19488428125 0.094421506 0.44292733 0.25307351 -0.71007651 0.26441267 -0.72557998 0.42741913 -0.24047412
19496706250 0.27460751 0.35369521 -0.058274481 -0.74277794 -0.063568607 -0.78210807 0.30787253 -0.37951708
19504984375 0.39508152 0.19576874 -0.34756005 -0.65524966 -0.39135829 -0.69280583 0.13820052 -0.47117493
19513262500 0.42785314 0.0068310234 -0.58446056 -0.47094959 -0.65338749 -0.4703134 -0.06785313 -0.48937234
19521540625 0.37349454 -0.16458212 -0.74649197 -0.20309512 -0.80290705 -0.1555001 -0.27393126 -0.41187525
19529818750 0.2589708 -0.28114828 -0.79355305 0.13191797 -0.80982828 0.20102954 -0.42582053 -0.23851547
19538096875 0.12545978 -0.33286446 -0.68206322 0.48122782 -0.66187823 0.54079926 -0.47024357 -0.010921053
19546375000 -0.0012455393 -0.33725116 -0.40493354 0.75287175 -0.36829907 0.79486167 -0.39270261 0.19537389
19554653125 -0.12508501 -0.30793378 -0.025792997 0.86350685 0.023481946 0.89214009 -0.2405041 0.31337547
19562931250 -0.24589513 -0.22573283 0.36005437 0.78781736 0.4249692 0.79426533 -0.090314895 0.33814335
19571209375 -0.32244074 -0.074145667 0.67125827 0.5508799 0.73586637 0.52046013 0.020550618 0.31854466
19579487500 -0.2973285 0.10927558 0.84738714 0.1987312 0.88259965 0.13856861 0.10973817 0.28972882
19587765625 -0.16497993 0.23950458 0.84589458 -0.1975631 0.84233266 -0.25848252 0.19840433 0.24398573
19596043750 0.0047550714 0.25729805 0.66552222 -0.54819167 0.63800919 -0.58568174 0.27567902 0.16139504
19604321875 0.12821312 0.18322946 0.35007501 -0.77910775 0.32499573 -0.78636897 0.31106335 0.047698118
19612600000 0.17922671 0.081408896 -0.031314988 -0.84190655 -0.031925559 -0.84105933 0.29145917 -0.065243773
19620878125 0.17221293 -0.0070613893 -0.39576259 -0.73231292 -0.37734431 -0.75394076 0.23243456 -0.15103704
19629156250 0.14148892 -0.076711491 -0.66366035 -0.47301349 -0.66461557 -0.53182799 0.15999216 -0.19616176
19637434375 0.082366534 -0.13229567 -0.78283465 -0.13696645 -0.83636707 -0.20263346 0.098697513 -0.21801913
19645712500 -0.0083633782 -0.14908221 -0.75060368 0.19980857 -0.85119629 0.17453389 0.040649753 -0.24184234
19653990625 -0.098981231 -0.10047139 -0.59509736 0.48776892 -0.70436978 0.52669382 -0.043403063 -0.26353505
19662268750 -0.13399497 0.0032137048 -0.33871618 0.69059861 -0.4178921 0.7920506 -0.15789147 -0.242295
19670546875 -0.087618105 0.10389374 -0.016518157 0.77544886 -0.030821532 0.91207129 -0.25797281 -0.15038891
19678825000 0.010945376 0.14393918 0.31718892 0.71554369 0.38506988 0.84401709 -0.29122898 -0.016513921
19687103125 0.10252558 0.11441633 0.59965581 0.51865655 0.72862399 0.58312154 -0.25167882 0.098592415
19695381250 0.15287685 0.050276894 0.77862245 0.21315959 0.91209233 0.18908465 -0.18692064 0.16254382
19703659375 0.17092445 -0.015418549 0.80926788 -0.15436952 0.88993543 -0.24117501 -0.13930899 0.2000508
19711937500 0.17534621 -0.085217737 0.66237098 -0.50734931 0.67337167 -0.60411626 -0.096516907 0.25369024
19720215625 0.15187548 -0.17407331 0.36312202 -0.75104755 0.32679233 -0.81831777 -0.010148335 0.31886867
19728493750 0.067135997 -0.26139563 -0.0090671871 -0.82713681 -0.057625014 -0.85064399 0.13183507 0.34029996
19736771875 -0.077515483 -0.29062834 -0.36876938 -0.73472726 -0.39843714 -0.72479868 0.28444186 0.27660343
19745050000 -0.22610557 -0.22062166 -0.64914834 -0.49353513 -0.64979666 -0.49290502 0.36297202 0.10863208
19753328125 -0.31333643 -0.071027413 -0.79565454 -0.15557061 -0.78495651 -0.17511438 0.37452909 -0.033113383
19761606250 -0.30305502 0.10176957 -0.77781606 0.21220544 -0.78146267 0.16585983 0.33754393 -0.15894325
19769884375 -0.20956671 0.23676343 -0.59427881 0.53030425 -0.63860959 0.47583947 0.27194449 -0.2656554
19778162500 -0.07654684 0.30889565 -0.2908155 0.72519857 -0.38071397 0.69984812 0.17769766 -0.36249027
19786440625 0.067425385 0.32477787 0.057473734 0.75846624 -0.050530769 0.79802936 0.035176303 -0.44089076
19794718750 0.2121603 0.2873598 0.36785641 0.63632894 0.29486641 0.74910897 -0.16318002 -0.4594464
19802996875 0.34097278 0.18943629 0.57807589 0.40571484 0.59285754 0.55360758 -0.3800925 -0.36756516
19811275000 0.4221535 0.032782499 0.66807836 0.13154164 0.77738327 0.24284311 -0.53405726 -0.15749052
19819553125 0.42395079 -0.15530054 0.65344375 -0.13804249 0.80340427 -0.11987654 -0.55556107 0.10997331
19827831250 0.33603176 -0.32906768 0.54940641 -0.38413927 0.66619384 -0.45474511 -0.44346359 0.34495723
19836109375 0.17961977 -0.44533375 0.3546676 -0.58538061 0.39731741 -0.69161046 -0.24941875 0.49026877
19844387500 -0.0080694668 -0.48562774 0.079036444 -0.69542587 0.055450436 -0.78267777 -0.029986672 0.53931451
19852665625 -0.19921236 -0.45145628 -0.2296977 -0.67430919 -0.28044882 -0.71232629 0.18065789 0.50470763
19860943750 -0.37461719 -0.34021866 -0.50490087 -0.51688915 -0.53884691 -0.51242095 0.3623867 0.39694491
19869221875 -0.49604085 -0.14548689 -0.68656474 -0.24994506 -0.68256164 -0.24073403 0.49093804 0.22638835
19877500000 -0.4865106 0.1341159 -0.73807871 0.078432627 -0.7375375 0.078995325 0.5304932 0.0058261203
19885778125 -0.37183577 0.36166069 -0.62728882 0.38982594 -0.62526739 0.37069485 0.4886086 -0.1993195
19894056250 -0.154043 0.50013351 -0.39556733 0.6182487 -0.41426179 0.5856123 0.36733222 -0.3699514
19902334375 0.093671195 0.50938684 -0.091869943 0.72736979 -0.1412977 0.70278376 0.19057232 -0.47745639
19910612500 0.29801893 0.40884748 0.23364379 0.69822454 0.16054246 0.70415014 -0.011021615 -0.5079084
19918890625 0.42640203 0.24885511 0.51946044 0.52558833 0.44701979 0.57874835 -0.20931359 -0.46480227
19927168750 0.4838919 0.069396384 0.69428247 0.23656213 0.65754795 0.33423313 -0.38581827 -0.35075054
19935446875 0.47868437 -0.11773819 0.70994943 -0.092126772 0.7381109 0.01738292 -0.51603329 -0.16537416
19943725000 0.40248093 -0.29897034 0.58416849 -0.37367377 0.67004937 -0.29827482 -0.56004602 0.077558115
19952003125 0.24997772 -0.44039267 0.37078023 -0.56400073 0.47829652 -0.54807419 -0.48360124 0.33219951
19960281250 0.043936096 -0.50377166 0.11366506 -0.65763652 0.20650516 -0.69571453 -0.28554597 0.52738458
19968559375 -0.17162615 -0.46780249 -0.15760297 -0.64999002 -0.10040134 -0.72148454 -0.014197281 0.59951073
19976837500 -0.34940171 -0.34130308 -0.41209945 -0.53961015 -0.39655277 -0.62182438 0.24908718 0.53022331
19985115625 -0.45420972 -0.15152894 -0.60934365 -0.3308022 -0.63197893 -0.40309489 0.43154129 0.35496056
19993393750 -0.4680883 0.064456739 -0.70874584 -0.049165163 -0.75764006 -0.094521947 0.50401664 0.14113249
20001671875 -0.36408204 0.29739919 -0.68027335 0.26000187 -0.73401254 0.2503359 0.49114192 -0.014663835
20009950000 -0.1901634 0.43801007 -0.52135676 0.54067588 -0.5216223 0.54112512 0.48390707 -0.17385994
20018228125 0.031187532 0.47591183 -0.24436767 0.72561848 -0.23868787 0.70616233 0.37217352 -0.33841205
20026506250 0.24418704 0.40959343 0.093737036 0.77396184 0.080159597 0.73465818 0.2040512 -0.45029816
20034784375 0.39956295 0.2564348 0.42622638 0.66844887 0.37588206 0.63196737 0.00088436948 -0.4860256
20043062500 0.46788403 0.05693309 0.68491393 0.42331195 0.6034444 0.42173648 -0.20100293 -0.4322156
20051340625 0.44363728 -0.14473352 0.81051028 0.081948169 0.72907925 0.13750249 -0.35844305 -0.29736999
20059618750 0.33912665 -0.31233066 0.76909518 -0.28516111 0.73031265 -0.17835344 -0.43972036 -0.11267633
20067896875 0.17757826 -0.41732487 0.56725883 -0.59323967 0.60179555 -0.47506443 -0.43652505 0.079576448
20076175000 -0.011976385 -0.4419978 0.25178698 -0.77896404 0.35285905 -0.70083761 -0.35930204 0.24562892
20084453125 -0.18987793 -0.3795723 -0.10889023 -0.80667686 0.017654337 -0.80476427 -0.22910058 0.36194971
20092731250 -0.31637919 -0.24626577 -0.44116589 -0.67910153 -0.34244618 -0.74717122 -0.071455121 0.41417918
20101009375 -0.36372417 -0.074520983 -0.68414223 -0.4242259 -0.64786065 -0.52660203 0.086126298 0.40266627
20109287500 -0.32473284 0.091183946 -0.79532099 -0.097093634 -0.82089055 -0.18643515 0.21882269 0.33722931
20117565625 -0.21628763 0.21121071 -0.76202798 0.24475868 -0.8201015 0.19764498 0.31566837 0.2341592
20125843750 -0.071476318 0.25826046 -0.59236747 0.5410679 -0.64566201 0.53751898 0.36996076 0.10773643
20134121875 0.06746459 0.22885962 -0.31617194 0.74404132 -0.34194472 0.76115179 0.37722698 -0.030077495
20142400000 0.21889664 0.15382573 0.021250933 0.81641608 0.02182496 0.81780308 0.33007938 -0.16283655
20150678125 0.25624254 0.038215518 0.36987031 0.74857897 0.3670519 0.72276801 0.23451805 -0.26759684
20158956250 0.23857968 -0.075228125 0.66597402 0.53162837 0.63540989 0.49502462 0.10554008 -0.31972376
20167234375 0.17277764 -0.16763778 0.84844214 0.198015 0.78379351 0.17990099 -0.024946155 -0.31015253
20175512500 0.067915566 -0.21785778 0.86762327 -0.19557372 0.78737724 -0.16767526 -0.12527257 -0.2523455
20183790625 -0.053774446 -0.20409961 0.7054466 -0.56840634 0.64555043 -0.48861188 -0.18454294 -0.17531671
20192068750 -0.14848503 -0.11773624 0.38495773 -0.83229548 0.3793318 -0.72306383 -0.21322879 -0.10278662
20200346875 -0.16935244 0.012669831 -0.026967272 -0.92129129 0.031915061 -0.82315618 -0.23077187 -0.036591083
20208625000 -0.10084879 0.12650581 -0.43502316 -0.81290656 -0.32969633 -0.76204503 -0.24337079 0.036481231
20216903125 0.021931991 0.1662851 -0.74689102 -0.53274643 -0.63382107 -0.54749209 -0.23808056 0.12846109
20225181250 0.13346839 0.12107768 -0.89798963 -0.14605463 -0.81524169 -0.21472877 -0.19132724 0.23197508
20233459375 0.18679669 0.030764095 -0.86095721 0.25941503 -0.82806289 0.16756332 -0.091498725 0.31793785
20241737500 0.18540992 -0.055019062 -0.65175986 0.60259253 -0.66581357 0.51553434 0.049125545 0.35402986
20250015625 0.16260476 -0.11714344 -0.31665167 0.81467056 -0.36700249 0.75006187 0.19928345 0.32220942
20258293750 0.13839284 -0.17672683 0.069069311 0.85215271 -0.0025516916 0.82556218 0.32351294 0.2256996
20266571875 0.088912092 -0.25616625 0.41705072 0.71791881 0.35232133 0.73754764 0.39605615 0.084155723
20274850000 -0.088414066 -0.30251855 0.62903029 0.50196314 0.62921751 0.50191307 0.39724845 -0.052944977
20283128125 -0.2232521 -0.22553395 0.78183126 0.19620006 0.77720058 0.17540392 0.34094742 -0.19434845
20291406250 -0.31794626 -0.085802749 0.79698378 -0.14730917 0.76640189 -0.17820066 0.24495356 -0.3016938
20299684375 -0.33514944 0.097120024 0.66767299 -0.4703967 0.60366613 -0.48505527 0.12253118 -0.36732066
20307962500 -0.25232589 0.27315232 0.41081879 -0.71249688 0.33081698 -0.68596923 -0.013588925 -0.39501888
20316240625 -0.092351489 0.38712436 0.072076999 -0.83132911 0.0089538395 -0.74756294 -0.1603723 -0.38038245
20324518750 0.09960676 0.40659696 -0.29596668 -0.79047191 -0.30080521 -0.67114061 -0.31078255 -0.30935842
20332796875 0.2721726 0.34324449 -0.62010223 -0.58747095 -0.54688078 -0.47891477 -0.43648133 -0.16802722
20341075000 0.40049386 0.2212228 -0.81660742 -0.2490321 -0.69187075 -0.20711026 -0.49355018 0.034834564
20349353125 0.48060322 0.059219774 -0.83208901 0.14204657 -0.7135874 0.098797873 -0.44611049 0.25720814
20357631250 0.49682432 -0.13712721 -0.66640139 0.48173505 -0.61089605 0.38776228 -0.29453933 0.43711773
20365909375 0.41884077 -0.3465564 -0.38152376 0.69950092 -0.39478004 0.6136381 -0.073734105 0.52391112
20374187500 0.23385912 -0.50996035 -0.052446168 0.77485245 -0.098685525 0.73401874 0.15437743 0.50174189
20382465625 -0.025210502 -0.56046933 0.2693097 0.71336687 0.23201121 0.71378034 0.33969027 0.3889834
20390743750 -0.27806854 -0.46948847 0.53705198 0.52818614 0.52908647 0.54217595 0.46029493 0.22451849
20399021875 -0.44721487 -0.27089304 0.7031343 0.25017628 0.71443903 0.24846782 0.51702797 0.035859846
20407300000 -0.50023609 -0.028940247 0.73273808 -0.072702184 0.73251098 -0.073289372 0.50879556 -0.16817668
20415578125 -0.44941139 0.2054334 0.62352711 -0.37199485 0.61699867 -0.38504294 0.4020651 -0.35040638
20423856250 -0.31045425 0.39085996 0.40061176 -0.58897418 0.37892699 -0.60097867 0.22927284 -0.48302141
20432134375 -0.11017967 0.50098091 0.11737034 -0.68807268 0.085919537 -0.68780303 0.0096231373 -0.53796071
20440412500 0.11534134 0.51677078 -0.16898783 -0.66555697 -0.20154528 -0.64886874 -0.21719681 -0.49546111
20448690625 0.32589877 0.43697679 -0.42117703 -0.53871733 -0.44421616 -0.50412297 -0.40723708 -0.35857537
20456968750 0.47950673 0.27925047 -0.60690308 -0.32624543 -0.60978162 -0.2796773 -0.51965332 -0.15625326
20465246875 0.55463487 0.077306084 -0.70009243 -0.04811947 -0.67503303 -0.0050157425 -0.5385049 0.069711067
20473525000 0.54637849 -0.13479266 -0.66577983 0.25911975 -0.62173116 0.27952448 -0.46827182 0.28017312
20481803125 0.4619683 -0.33446056 -0.49245441 0.52842832 -0.44999471 0.51902115 -0.32568663 0.44583678
20490081250 0.29501483 -0.50211883 -0.21224822 0.68831569 -0.18852752 0.66359717 -0.12816656 0.54741848
20498359375 0.045943681 -0.59038621 0.099695198 0.7053898 0.10587817 0.6814217 0.097840436 0.56343788
20506637500 -0.24306992 -0.54207265 0.38091931 0.59586251 0.38039929 0.57982582 0.31738734 0.48527279
20514915625 -0.47949743 -0.33541343 0.59539443 0.38775963 0.59675539 0.3744792 0.48772529 0.31735399
20523193750 -0.56354254 -0.028126856 0.71434295 0.10734084 0.71415389 0.087422036 0.5676623 0.091208562
20531471875 -0.46238372 0.25948146 0.70643997 -0.21100318 0.69244301 -0.23764877 0.5410313 -0.14301117
20539750000 -0.30791113 0.39567152 0.5109641 -0.52649289 0.51053023 -0.52728409 0.43763214 -0.31300133
20548028125 -0.084553242 0.47416651 0.23310256 -0.69214618 0.22932948 -0.69814265 0.26891723 -0.46062195
20556306250 0.12320829 0.44933584 -0.088749543 -0.71932542 -0.099587858 -0.72584444 0.049843833 -0.5261482
20564584375 0.28865072 0.359211 -0.38425225 -0.60267162 -0.4031767 -0.6035251 -0.17782114 -0.4919278
20572862500 0.41176233 0.22181314 -0.59212065 -0.3737359 -0.61528039 -0.36179632 -0.3688063 -0.36168209
20581140625 0.4779821 0.042479042 -0.67836887 -0.094727367 -0.69339955 -0.064418033 -0.47853345 -0.1647508
20589418750 0.46385413 -0.16131088 -0.65149611 0.18385901 -0.64358079 0.22261187 -0.49197936 0.051385034
20597696875 0.3517741 -0.34621385 -0.52546674 0.4295353 -0.49280265 0.45661381 -0.41639155 0.24198344
20605975000 0.15866961 -0.45592767 -0.31565213 0.61341262 -0.27324483 0.61567068 -0.27980036 0.37464857
20614253125 -0.064536549 -0.45344412 -0.038013067 0.70809758 -0.0044337604 0.68562698 -0.11415393 0.43796396
20622531250 -0.24763808 -0.34177607 0.27108976 0.68193477 0.28295079 0.64619648 0.047454864 0.43570012
20630809375 -0.34250963 -0.16555202 0.55842382 0.51615989 0.5459469 0.48417291 0.18747579 0.38463739
20639087500 -0.34165841 0.01650575 0.75260615 0.22166887 0.72361511 0.20912772 0.30094695 0.29869795
20647365625 -0.26709843 0.16382903 0.7882998 -0.1437874 0.76629859 -0.13115479 0.38856563 0.18415137
20655643750 -0.14370044 0.26245391 0.64172959 -0.49140772 0.64577532 -0.47240764 0.4410688 0.032879815
20663921875 0.011543853 0.29714647 0.34970233 -0.72607654 0.36932847 -0.72791749 0.42742386 -0.14509313
20672200000 0.20695807 0.2704154 -0.0049578655 -0.79075611 -0.0059144599 -0.79027301 0.31225735 -0.29707116
20680478125 0.3001546 0.13064562 -0.34758481 -0.70659834 -0.35142744 -0.70992553 0.15686737 -0.39066052
20688756250 0.3032954 -0.02120276 -0.62101418 -0.4854601 -0.62684286 -0.4860689 -0.025497923 -0.40190095
20697034375 0.23850672 -0.13587852 -0.77217978 -0.162352 -0.77719533 -0.16072336 -0.18674484 -0.33013719
20705312500 0.14721099 -0.19759122 -0.7622425 0.1952946 -0.76556575 0.19717659 -0.28860202 -0.20595011
20713590625 0.052087586 -0.22028324 -0.59128624 0.5086422 -0.59410715 0.50963539 -0.3265757 -0.069415644
20721868750 -0.046451632 -0.21048096 -0.30393493 0.70785928 -0.30920109 0.7069189 -0.31682807 0.053579226
20730146875 -0.14234553 -0.15319321 0.031888891 0.7572915 0.021263605 0.76215369 -0.27722669 0.1578863
20738425000 -0.20271116 -0.041235778 0.34861812 0.66069013 0.33917737 0.675125 -0.21244819 0.24495938
20746703125 -0.18745624 0.097923428 0.58838576 0.44676042 0.59020191 0.46887407 -0.12593283 0.30950207
20754981250 -0.086423367 0.20855032 0.71724993 0.15705319 0.73601693 0.17481948 -0.02229213 0.3460412
20763259375 0.065871671 0.23853752 0.71707773 -0.15719332 0.74325705 -0.15608265 0.089547239 0.35088587
20771537500 0.20940527 0.17396945 0.59117627 -0.44672024 0.60789996 -0.46164083 0.20581774 0.3228159
20779815625 0.29087901 0.039295826 0.3502852 -0.66457897 0.35136968 -0.68265951 0.32225236 0.25178307
20788093750 0.28714827 -0.11542633 0.031874668 -0.76354402 0.023398397 -0.77107328 0.4165965 0.12447629
20796371875 0.2066862 -0.24587455 -0.30996078 -0.71302962 -0.31524488 -0.70861489 0.44853893 -0.054603517
20804650000 0.094453059 -0.30366969 -0.60491931 -0.5127213 -0.60530561 -0.51244295 0.35988522 -0.23022774
20812928125 -0.069847874 -0.30329451 -0.77559501 -0.19215287 -0.7721259 -0.18923905 0.23589639 -0.34919104
20821206250 -0.21997647 -0.22056323 -0.78142196 0.17713508 -0.77294922 0.17556472 0.078638762 -0.40719074
20829484375 -0.31516355 -0.068226919 -0.61739814 0.50835949 -0.60930395 0.49550638 -0.081829421 -0.40009472
20837762500 -0.3189114 0.12033696 -0.31867355 0.72306466 -0.32284945 0.70515972 -0.22529937 -0.33820203
20846040625 -0.22328329 0.28646737 0.036062591 0.77513105 0.018722082 0.76279479 -0.33798656 -0.23207422
20854318750 -0.058315754 0.37965089 0.36423534 0.66545671 0.34167805 0.66756213 -0.41021442 -0.09208592
20862596875 0.12492573 0.37963203 0.60157138 0.42995173 0.58550704 0.44774181 -0.43169978 0.073190957
20870875000 0.28050947 0.30159545 0.71125054 0.12880275 0.70679039 0.1539005 -0.38758194 0.24741229
20879153125 0.3844474 0.16997032 0.68135953 -0.18041675 0.69600719 -0.15676668 -0.26818222 0.4046371
20887431250 0.42959392 0.010063867 0.53211021 -0.43806165 0.56067806 -0.43013841 -0.07749854 0.50410998
20895709375 0.40885797 -0.15971054 0.30171329 -0.60454011 0.32674468 -0.62107539 0.15162668 0.50553715
20903987500 0.31621668 -0.31683448 0.033490229 -0.66852498 0.034205753 -0.69800258 0.36199009 0.39640307
20912265625 0.15534341 -0.42729905 -0.23596515 -0.62987894 -0.26102114 -0.64496881 0.49426067 0.20388488
20920543750 -0.052880265 -0.45765013 -0.47926906 -0.49074492 -0.50812471 -0.47362077 0.52660966 -0.016931277
20928821875 -0.26506817 -0.38504115 -0.65940106 -0.25627056 -0.65872371 -0.21395177 0.47004539 -0.21607512
20937100000 -0.43546736 -0.20127711 -0.73116958 0.063745998 -0.73078769 0.064069986 0.42166275 -0.33550519
20945378125 -0.48701596 0.037215374 -0.63807577 0.38286224 -0.62797391 0.38580301 0.25215158 -0.47451827
20953656250 -0.42457598 0.27091023 -0.40759039 0.63237882 -0.38856763 0.6218698 0.037198108 -0.5426718
20961934375 -0.26405063 0.44991106 -0.082461633 0.74770677 -0.072387233 0.71604806 -0.19997486 -0.51650351
20970212500 -0.04321197 0.54044443 0.25677931 0.70018935 0.23968595 0.66206688 -0.41317257 -0.38627636
20978490625 0.19656475 0.52679652 0.52993774 0.50675225 0.4857924 0.48618406 -0.54777032 -0.16869546
20986768750 0.40911669 0.40804493 0.68069911 0.22286081 0.63266504 0.23500201 -0.57048815 0.083972089
20995046875 0.55040503 0.20380548 0.69547909 -0.083756328 0.66484165 -0.045892004 -0.48283085 0.31280592
21003325000 0.58294588 -0.047140978 0.58600426 -0.35825077 0.58316195 -0.31477192 -0.31520727 0.47737184
21011603125 0.49596888 -0.2848779 0.38234225 -0.55960256 0.3995119 -0.52682436 -0.10701306 0.55779833
21019881250 0.31205407 -0.45307517 0.12032257 -0.66273266 0.14509501 -0.6445111 0.10734672 0.55375379
21028159375 0.079139054 -0.51869172 -0.1602059 -0.65460318 -0.13472672 -0.64772069 0.30046612 0.4741244
21036437500 -0.152123 -0.47872689 -0.41607863 -0.53539872 -0.39119002 -0.53809172 0.44990328 0.33240235
21044715625 -0.34325349 -0.34697509 -0.60658115 -0.31923315 -0.58589184 -0.33163545 0.53873146 0.14401461
21052993750 -0.4606272 -0.14810999 -0.69415963 -0.039256174 -0.68460864 -0.0571707 0.55287379 -0.067540474
21061271875 -0.48152214 0.084420681 -0.65671784 0.25853392 -0.65853256 0.24572872 0.48398823 -0.27348799
21069550000 -0.39945474 0.30619904 -0.4985469 0.52176833 -0.49846971 0.52138692 0.33882847 -0.44486633
21077828125 -0.22417514 0.46600416 -0.23755588 0.68865472 -0.22029611 0.69370276 0.12344047 -0.54908621
21086106250 0.0080347173 0.52790147 0.073651768 0.73419058 0.10837778 0.72022533 -0.12539725 -0.55419147
21094384375 0.24064294 0.47853073 0.383113 0.64815015 0.41042611 0.59746414 -0.35818931 -0.44885397
21102662500 0.42035043 0.33338866 0.63807124 0.43222135 0.62328917 0.3576014 -0.52164352 -0.24776405
21110940625 0.51710981 0.133494 0.77937752 0.11258566 0.70669532 0.055919874 -0.57303494 0.0030167324
21119218750 0.52622539 -0.08169058 0.75777727 -0.24768507 0.65750909 -0.24286474 -0.5086773 0.23723717
21127496875 0.45089301 -0.28959143 0.56840986 -0.56159496 0.49446148 -0.49169764 -0.36010432 0.40753961
21135775000 0.28483823 -0.45707995 0.25936565 -0.74705458 0.24762492 -0.65426707 -0.17363054 0.4944391
21144053125 0.041616857 -0.53221846 -0.088318676 -0.77298528 -0.048713811 -0.70502424 0.013053447 0.50445163
21152331250 -0.21785983 -0.46906346 -0.40110248 -0.65225059 -0.34653521 -0.62506956 0.17667994 0.45511052
21160609375 -0.40431613 -0.27409726 -0.62912661 -0.42066747 -0.58599126 -0.42077115 0.30877259 0.36605528
21168887500 -0.45381942 -0.016546508 -0.74418712 -0.1200987 -0.71282238 -0.12857132 0.41251242 0.24587536
21177165625 -0.36214519 0.20788102 -0.72618163 0.20061007 -0.70077306 0.18795009 0.48369819 0.090904407
21185443750 -0.18991151 0.33668375 -0.57660854 0.48832464 -0.55750853 0.4694826 0.49951896 -0.10300036
21193721875 -0.0064295502 0.36623317 -0.31718263 0.68870509 -0.30757332 0.66655302 0.42305318 -0.30961356
21202000000 0.16402228 0.36164337 0.0043567591 0.76163381 0.0043523414 0.76178354 0.24245097 -0.42660981
21210278125 0.29397491 0.2659075 0.3269901 0.69180602 0.33694521 0.69034946 0.03610703 -0.49280274
21218556250 0.38158783 0.12685113 0.58842355 0.49230564 0.6090948 0.48030946 -0.18276669 -0.45402893
21226834375 0.40360296 -0.050003529 0.74601197 0.20423436 0.76527506 0.16761465 -0.35253459 -0.31936577
21235112500 0.32949379 -0.22977836 0.77354753 -0.12678833 0.76596087 -0.18767062 -0.43381935 -0.13792014
21243390625 0.16082393 -0.34888837 0.66246033 -0.44917515 0.60521203 -0.50996709 -0.43469995 0.035966728
21251668750 -0.05184783 -0.35135925 0.41572994 -0.70675939 0.31333855 -0.7250886 -0.387115 0.17985715
21259946875 -0.22426532 -0.23389611 0.066000156 -0.83846182 -0.040447231 -0.77980095 -0.31167266 0.30042434
21268225000 -0.29488456 -0.050721671 -0.32223305 -0.79461634 -0.37046242 -0.67013061 -0.20130199 0.40415683
21276503125 -0.26163226 0.12485777 -0.65554625 -0.56841153 -0.61102128 -0.43854037 -0.047113962 0.47241673
21284781250 -0.15819155 0.25168645 -0.83936119 -0.20600535 -0.72610807 -0.13897812 0.13683531 0.47267631
21293059375 -0.014832712 0.32033381 -0.828444 0.19353403 -0.71350449 0.17285399 0.31229272 0.39153659
21301337500 0.15119262 0.31754526 -0.63818973 0.52669281 -0.57879257 0.45451942 0.43685666 0.23952043
21309615625 0.30478907 0.22820973 -0.33713123 0.72912604 -0.3384549 0.66293156 0.48331246 0.051762503
21317893750 0.39351681 0.064249195 0.0028547775 0.78448451 -0.023888044 0.75344884 0.44811684 -0.12816039
21326171875 0.37982273 -0.12313247 0.32455257 0.70026624 0.30847794 0.69921571 0.35569021 -0.26936099
21334450000 0.27288041 -0.25799775 0.5751887 0.50537336 0.5761112 0.50448769 0.26955241 -0.40596691
21342728125 0.1121539 -0.32812664 0.73428559 0.21439683 0.75294244 0.20623988 0.087896176 -0.47698471
21351006250 -0.052203394 -0.3214066 0.75383437 -0.1228653 0.77410167 -0.15150923 -0.10460768 -0.47581217
21359284375 -0.19939883 -0.25531682 0.61992937 -0.43587276 0.62589955 -0.48298267 -0.28522408 -0.40381882
21367562500 -0.32179204 -0.13099082 0.36220711 -0.65267372 0.34233785 -0.70706421 -0.42990369 -0.26621526
21375840625 -0.38787356 0.057087116 0.044154093 -0.72833633 -0.0061030895 -0.7775954 -0.51327115 -0.077332474
21384118750 -0.34879714 0.28023335 -0.25968194 -0.66112775 -0.34100154 -0.68376297 -0.51258326 0.13569
21392396875 -0.18545002 0.46661013 -0.49733138 -0.48593876 -0.59235859 -0.4577854 -0.42377758 0.33396593
21400675000 0.064336836 0.54100049 -0.64440483 -0.24219896 -0.71546835 -0.15507163 -0.26044539 0.48098141
21408953125 0.3191964 0.47170874 -0.69135129 0.038192268 -0.69764012 0.1587761 -0.050803274 0.55047214
21417231250 0.49821261 0.28420871 -0.62689501 0.32594809 -0.55745822 0.42680666 0.17047094 0.53264344
21425509375 0.55885267 0.045777939 -0.43842843 0.57658583 -0.3270562 0.60877782 0.36990413 0.4276374
21433787500 0.51043785 -0.180696 -0.14127076 0.72518992 -0.049336683 0.68502527 0.51425165 0.24995342
21442065625 0.37870497 -0.36405391 0.19960414 0.71538591 0.23445739 0.64465135 0.5751121 0.026522769
21450343750 0.17691773 -0.48424181 0.49585536 0.54892731 0.48261771 0.49526161 0.5421496 -0.20257176
21458621875 -0.073284864 -0.49813125 0.67736083 0.27043802 0.65503538 0.25304371 0.42458761 -0.39954925
21466900000 -0.30728585 -0.38242292 0.71427971 -0.05056018 0.71480292 -0.050792314 0.27034426 -0.50262809
21475178125 -0.45346338 -0.16762255 0.61283112 -0.34855878 0.6281696 -0.36042696 0.046950374 -0.57179344
21483456250 -0.47594425 0.080728024 0.40012488 -0.57307839 0.40705043 -0.60457802 -0.19268994 -0.55216092
21491734375 -0.38464859 0.29256052 0.11391182 -0.68265247 0.097256511 -0.71883756 -0.41349098 -0.4356924
21500012500 -0.22989181 0.43355712 -0.19183725 -0.6588552 -0.22434303 -0.67907232 -0.5755915 -0.23277804
21508290625 -0.047795996 0.50623572 -0.45434129 -0.50176543 -0.4855682 -0.50640208 -0.6408335 0.029136794
21516568750 0.1494514 0.51562142 -0.61069101 -0.2468185 -0.64115316 -0.24831033 -0.58561355 0.30164817
21524846875 0.35513741 0.45038068 -0.63415492 0.035085872 -0.67547041 0.040581875 -0.4151004 0.52598262
21533125000 0.53486681 0.28799334 -0.54314727 0.27885845 -0.59237325 0.31204203 -0.16529441 0.6516782
21541403125 0.62902015 0.036579605 -0.38143206 0.45582357 -0.41047427 0.52358437 0.10578261 0.65506208
21549681250 0.58489788 -0.25025657 -0.17872226 0.56289929 -0.16140288 0.64771116 0.34160233 0.5523324
21557959375 0.39266285 -0.4890936 0.050528176 0.59919453 0.12123647 0.66387933 0.50986207 0.3761465
21566237500 0.095220387 -0.59648532 0.29255986 0.55066162 0.39375752 0.55968601 0.5981043 0.15947233
21574515625 -0.21376748 -0.52840668 0.51623183 0.39895454 0.60189104 0.34234208 0.60271126 -0.069868788
21582793750 -0.4315438 -0.31695598 0.67078835 0.14473546 0.69588518 0.051229727 0.52446729 -0.28477094
21591071875 -0.49873698 -0.046866272 0.69188786 -0.17853451 0.65069264 -0.25159517 0.37213323 -0.45644087
21599350000 -0.49202624 0.14345554 0.48940167 -0.50392687 0.48915964 -0.50467998 0.16848987 -0.56455112
21607628125 -0.36662275 0.35842371 0.21081534 -0.6592356 0.23031309 -0.66590261 -0.08235129 -0.5931195
21615906250 -0.16696082 0.49262276 -0.097366914 -0.67174387 -0.073408164 -0.70402557 -0.3338694 -0.50654
21624184375 0.066366836 0.5263415 -0.36798728 -0.55236435 -0.36927244 -0.61090779 -0.52443576 -0.31414515
21632462500 0.28991544 0.45681912 -0.55533117 -0.33927271 -0.60238266 -0.39701849 -0.60978317 -0.06174859
21640740625 0.46009269 0.29742411 -0.63513607 -0.077069178 -0.71913463 -0.096507289 -0.5818947 0.19267835
21649018750 0.54359174 0.079928637 -0.60610574 0.18791752 -0.68976301 0.22768828 -0.46107399 0.40841264
21657296875 0.52147454 -0.15108669 -0.47679713 0.41766492 -0.51886564 0.5004065 -0.26935434 0.5580799
21665575000 0.3994101 -0.34759536 -0.26722395 0.58137763 -0.25264916 0.66638285 -0.035148386 0.61947191
21673853125 0.20250553 -0.46731555 -0.0031651522 0.65243733 0.050047874 0.70490807 0.20085686 0.58069342
21682131250 -0.025505327 -0.48095226 0.27675298 0.60674059 0.33826244 0.61991471 0.39485717 0.4532609
21690409375 -0.23015893 -0.38811859 0.52203071 0.44092393 0.56970239 0.42542955 0.51639289 0.26818535
21698687500 -0.3634572 -0.21186282 0.67649704 0.17451534 0.70445454 0.14735627 0.55761886 0.063140251
21706965625 -0.39510921 0.0014600437 0.69626808 -0.14179234 0.7085644 -0.17030767 0.52778608 -0.13374518
21715243750 -0.32177749 0.19961359 0.5704512 -0.43949243 0.57040805 -0.46385852 0.43882257 -0.30870432
21723521875 -0.1645043 0.33460814 0.32211211 -0.65313405 0.31454372 -0.66612226 0.29212719 -0.45142165
21731800000 0.04300731 0.43151334 0.0007863107 -0.7328586 6.9694477e-005 -0.73286951 0.088974841 -0.53609568
21740078125 0.23202066 0.36940077 -0.32427123 -0.66358322 -0.31296417 -0.66590649 -0.14111304 -0.53167564
21748356250 0.36639094 0.23350097 -0.58642161 -0.45279032 -0.56855911 -0.4727793 -0.35709292 -0.4230662
21756634375 0.43043682 0.057572253 -0.72727692 -0.14453514 -0.72446138 -0.18913554 -0.50425005 -0.22654353
21764912500 0.41371483 -0.13462214 -0.7093823 0.19136703 -0.74804783 0.14104033 -0.54436243 0.0078977291
21773190625 0.30339032 -0.31036103 -0.54474247 0.47497272 -0.62383264 0.46124592 -0.48300362 0.22010177
21781468750 0.10371947 -0.41385981 -0.28254926 0.65071547 -0.35967758 0.70288759 -0.35783318 0.37433636
21789746875 -0.13329306 -0.38867232 0.017294329 0.69729167 -0.0027627908 0.79337901 -0.206211 0.46734491
21798025000 -0.31619185 -0.22615181 0.30034041 0.62109733 0.35443768 0.70302862 -0.045365602 0.5158177
21806303125 -0.36526993 0.010264313 0.52705175 0.44336829 0.61768579 0.46131197 0.12968661 0.52144295
21814581250 -0.26995516 0.21850145 0.67085904 0.19129829 0.7364583 0.14456895 0.31423727 0.46680495
21822859375 -0.088793926 0.31993294 0.70558876 -0.10727163 0.71424145 -0.17507726 0.48082978 0.33491403
21831137500 0.088133201 0.3063345 0.60961252 -0.41281894 0.56988287 -0.45139816 0.58596152 0.13178566
21839415625 0.20844428 0.23094645 0.3711035 -0.6598618 0.32823414 -0.64518088 0.59303218 -0.10556504
21847693750 0.28793341 0.14591579 0.027975718 -0.76475525 0.027195297 -0.72398371 0.49774188 -0.32278001
21855971875 0.36166716 0.039234582 -0.31992343 -0.68507332 -0.27944696 -0.66912913 0.32584721 -0.47531921
21864250000 0.40633193 -0.1261851 -0.54068983 -0.49511075 -0.54181743 -0.49428657 0.090982594 -0.53356558
21872528125 0.30394071 -0.30482545 -0.70053315 -0.20970887 -0.70457917 -0.21660991 -0.12142724 -0.52127093
21880806250 0.10235357 -0.41981277 -0.72304779 0.11304756 -0.73433578 0.10870352 -0.31242907 -0.43646449
21889084375 -0.14572085 -0.40622124 -0.60727501 0.41824195 -0.61729878 0.41712379 -0.46151879 -0.28868422
21897362500 -0.3468833 -0.2546345 -0.3650302 0.64760423 -0.37662706 0.64577323 -0.55087924 -0.093692757
21905640625 -0.43027356 -0.029951269 -0.038687643 0.74743122 -0.059409268 0.74596024 -0.56292862 0.12790912
21913918750 -0.39575303 0.18667349 0.30524045 0.68296915 0.27503088 0.69775081 -0.48720032 0.34952891
21922196875 -0.28553939 0.35373998 0.57373172 0.46143425 0.55474728 0.50470543 -0.32453737 0.53311276
21930475000 -0.12229957 0.47029203 0.69694608 0.14721408 0.71239835 0.20257685 -0.089902781 0.6383338
21938753125 0.090125769 0.51393229 0.65809309 -0.16209561 0.71301073 -0.1284807 0.17520809 0.63716692
21947031250 0.31649348 0.45233235 0.5094586 -0.39944062 0.57394105 -0.4127889 0.42161787 0.52566338
21955309375 0.49404308 0.27876243 0.30200386 -0.55061668 0.33593023 -0.60195512 0.60175085 0.31587043
21963587500 0.56540316 0.037607662 0.067813382 -0.62091106 0.055417303 -0.67181993 0.67469555 0.052603625
21971865625 0.51403964 -0.2086031 -0.18462977 -0.6088587 -0.21984376 -0.62517273 0.63087207 -0.20996302
21980143750 0.35837865 -0.40109205 -0.43203196 -0.49619001 -0.4507767 -0.47928575 0.49288559 -0.4214603
21988421875 0.13793889 -0.50439578 -0.62154317 -0.27205274 -0.60794848 -0.25703552 0.30012029 -0.55782193
21996700000 -0.10688374 -0.50688344 -0.692092 0.034121789 -0.69184238 0.035195507 0.045367118 -0.59963638
22004978125 -0.34264907 -0.40553129 -0.60708958 0.33904555 -0.60990196 0.33103696 -0.19035821 -0.5732699
22013256250 -0.52072757 -0.1963229 -0.391491 0.56387216 -0.40204453 0.55920416 -0.40603259 -0.46819881
22021534375 -0.58024323 0.086956441 -0.11235466 0.66342157 -0.11951257 0.66643888 -0.58084422 -0.28616914
22029812500 -0.4910973 0.36828184 0.16669291 0.64120382 0.16802301 0.64077258 -0.68138748 -0.035735585
22038090625 -0.27625439 0.56798196 0.41114661 0.51869196 0.40767872 0.50365525 -0.66793615 0.25354904
22046368750 -0.0053356518 0.63762605 0.59453976 0.31363794 0.56889629 0.2959865 -0.52701795 0.52066362
22054646875 0.25289723 0.58220291 0.68893343 0.037176877 0.64082295 0.046234921 -0.27404508 0.70283586
22062925000 0.45550901 0.43685639 0.64995944 -0.27197108 0.615376 -0.2168075 0.034456462 0.75236696
22071203125 0.59256685 0.22750485 0.46380714 -0.53568959 0.4871451 -0.46291336 0.32629162 0.66120791
22079481250 0.64201832 -0.038366668 0.17939228 -0.6784814 0.25540012 -0.64791107 0.53686714 0.46271759
22087759375 0.5578059 -0.32419124 -0.12781192 -0.68003994 -0.057035957 -0.71820158 0.63815969 0.21549842
22096037500 0.32323837 -0.54104155 -0.39579818 -0.55302078 -0.387045 -0.62710851 0.64198226 -0.030115817
22104315625 0.0061022481 -0.602543 -0.58197355 -0.33367172 -0.63246095 -0.37625399 0.57072848 -0.2485541
22112593750 -0.28398815 -0.49150842 -0.662489 -0.06484168 -0.71846664 -0.043543179 0.43867993 -0.43662441
22120871875 -0.459952 -0.26875612 -0.63118678 0.21162024 -0.63896561 0.26861316 0.24187808 -0.58000171
22129150000 -0.5264793 -0.073778994 -0.48304275 0.48102164 -0.48246089 0.48217052 -0.060088161 -0.61360937
22137428125 -0.50235516 0.17329071 -0.23241714 0.63667482 -0.22958939 0.63092762 -0.30251318 -0.54557741
22145706250 -0.38363111 0.37973088 0.059590563 0.66846466 0.052316982 0.65957105 -0.50571549 -0.38586071
22153984375 -0.19275849 0.52518129 0.33110321 0.57128114 0.31758595 0.57689381 -0.63429719 -0.15240863
22162262500 0.052063063 0.58429772 0.52700055 0.37803736 0.52741593 0.39644498 -0.65627515 0.11834637
22170540625 0.31388783 0.52526706 0.6280939 0.13563822 0.64759028 0.14626878 -0.56178403 0.37270176
22178818750 0.52821487 0.34143963 0.63639456 -0.12442397 0.66018909 -0.13616185 -0.37446547 0.56435883
22187096875 0.6281727 0.068952054 0.54729426 -0.37934589 0.55364168 -0.4077321 -0.13120241 0.66204005
22195375000 0.57961226 -0.21791135 0.3522597 -0.59436947 0.33365124 -0.61810321 0.12625393 0.65650076
22203653125 0.40023568 -0.43694696 0.062006146 -0.71596467 0.033214685 -0.71661234 0.35768476 0.55361158
22211931250 0.14869982 -0.53604078 -0.27342552 -0.68852788 -0.28838289 -0.66785824 0.52686894 0.37163195
22220209375 -0.10536092 -0.5039041 -0.56470382 -0.49417627 -0.5568918 -0.47539219 0.61114353 0.14271146
22228487500 -0.30431718 -0.36429802 -0.72716564 -0.18253307 -0.71241397 -0.18230398 0.60421062 -0.096747257
22236765625 -0.40874371 -0.15619317 -0.72156978 0.16111186 -0.71789378 0.14895058 0.50609398 -0.31292042
22245043750 -0.40154648 0.065926641 -0.56823987 0.45279536 -0.57892531 0.44694945 0.33581316 -0.47599506
22253321875 -0.29417387 0.24821271 -0.31513342 0.64222026 -0.32434702 0.64843404 0.11783424 -0.55860871
22261600000 -0.13089012 0.44082123 -0.0096789524 0.7064513 -0.008570319 0.70610857 -0.11998798 -0.56787372
22269878125 0.066589236 0.45742872 0.28804183 0.63889152 0.289994 0.63597673 -0.34458846 -0.46759963
22278156250 0.25203046 0.38995612 0.52672267 0.45555776 0.52590507 0.44978023 -0.5058971 -0.28899485
22286434375 0.39594802 0.24671552 0.66896182 0.19466397 0.66057938 0.18922465 -0.58207625 -0.067097306
22294712500 0.46241051 0.042508505 0.69305199 -0.10011381 0.67825788 -0.097152188 -0.56456876 0.16025656
22302990625 0.41650444 -0.182414 0.59491616 -0.38386813 0.584499 -0.36883247 -0.46364737 0.35712218
22311268750 0.25217673 -0.35969147 0.38480029 -0.61057967 0.38916346 -0.590455 -0.30293816 0.49633175
22319546875 0.010038373 -0.41998053 0.086061634 -0.73238641 0.10428441 -0.7207638 -0.11110384 0.56462169
22327825000 -0.22240874 -0.33477733 -0.24781053 -0.7082575 -0.22802511 -0.71587116 0.083224006 0.56689411
22336103125 -0.36417052 -0.14417304 -0.54206955 -0.53083116 -0.53696537 -0.55084628 0.2677376 0.51276153
22344381250 -0.38612685 0.079336964 -0.7267679 -0.23319755 -0.73652703 -0.24909046 0.43950006 0.40013143
22352659375 -0.29979849 0.27369636 -0.74926305 0.11695319 -0.77057934 0.11492441 0.57956088 0.21596013
22360937500 -0.13792667 0.40282565 -0.60968429 0.43166885 -0.62750512 0.4491635 0.63729084 -0.040450536
22369215625 0.065087706 0.44187638 -0.35283491 0.63974428 -0.35113442 0.67076313 0.56312817 -0.31561255
22377493750 0.26453197 0.38107568 -0.045542192 0.71504229 -0.017952023 0.73655879 0.35979494 -0.52301264
22385771875 0.41386831 0.23201865 0.25958827 0.65932214 0.29588377 0.65335524 0.09269692 -0.60515064
22394050000 0.45741734 0.0498401 0.51042169 0.48002127 0.51119095 0.47954178 -0.13134333 -0.57301718
22402328125 0.41452074 -0.15711685 0.66332769 0.20955254 0.66537064 0.2139425 -0.34067035 -0.45905355
22410606250 0.28568143 -0.32671699 0.68089223 -0.099110924 0.69005001 -0.091890924 -0.47832441 -0.2893492
22418884375 0.087653846 -0.42693087 0.56045735 -0.37679082 0.57988077 -0.37538099 -0.54771131 -0.097977981
22427162500 -0.14971915 -0.42601177 0.33708605 -0.56777644 0.36099643 -0.58144379 -0.55784208 0.10213691
22435440625 -0.37229916 -0.30299145 0.063325047 -0.64189023 0.079594076 -0.6720705 -0.50376749 0.30404207
22443718750 -0.51012874 -0.072500952 -0.20728563 -0.59628814 -0.21002772 -0.63807869 -0.37576556 0.48962954
22451996875 -0.51043946 0.20401561 -0.42664966 -0.45057324 -0.45423034 -0.48856118 -0.1725409 0.62120235
22460275000 -0.36986709 0.44201544 -0.5682804 -0.23776577 -0.61548734 -0.25534359 0.081000224 0.6630339
22468553125 -0.13406031 0.57512158 -0.61883855 0.013391005 -0.67173481 0.025312571 0.34159976 0.59498864
22476831250 0.12646675 0.57969171 -0.56832528 0.27298972 -0.60249996 0.31153733 0.55647928 0.41751453
22485109375 0.35168821 0.47202832 -0.40573794 0.50138336 -0.40979299 0.5463748 0.68093091 0.15926673
22493387500 0.5056048 0.2858209 -0.14736588 0.63812959 -0.12910798 0.67126852 0.68478876 -0.13166527
22501665625 0.57253605 0.052411865 0.14962298 0.6415236 0.17524253 0.65682805 0.56390214 -0.39748552
22509943750 0.53474635 -0.19944246 0.41738635 0.51161307 0.43641692 0.51043487 0.34104189 -0.58367014
22518221875 0.37782258 -0.41928145 0.59998423 0.27677423 0.60849911 0.27073127 0.06795495 -0.65835357
22526500000 0.12281246 -0.53976637 0.65786076 -0.017520454 0.6586315 -0.017955817 -0.21084355 -0.60861892
22534778125 -0.16329674 -0.51884139 0.58065957 -0.30416784 0.58149922 -0.29141688 -0.42860165 -0.47619557
22543056250 -0.39442605 -0.36647317 0.38425905 -0.5251779 0.40168872 -0.50533158 -0.5769372 -0.281683
22551334375 -0.5259099 -0.13859692 0.10922251 -0.63387841 0.14716896 -0.62756133 -0.65058637 -0.052399505
22559612500 -0.55072224 0.11258496 -0.18038772 -0.60130346 -0.13999939 -0.624183 -0.64400363 0.19395639
22567890625 -0.4741312 0.3564291 -0.41044512 -0.44275528 -0.39260158 -0.488691 -0.54690552 0.44074169
22576168750 -0.29407176 0.55065739 -0.52733785 -0.21689108 -0.54277021 -0.26345128 -0.34453726 0.64598852
22584446875 -0.038387645 0.64973229 -0.5429858 0.0054199714 -0.57727802 -0.019882221 -0.053798083 0.75084841
22592725000 0.24129635 0.61824214 -0.489252 0.19878238 -0.52406585 0.1968718 0.26552251 0.71089172
22601003125 0.4791016 0.46127287 -0.38814387 0.36677587 -0.41095898 0.37591609 0.53240073 0.52826554
22609281250 0.61765295 0.20960794 -0.22914167 0.50627583 -0.2447796 0.51524383 0.68417197 0.25112656
22617559375 0.62441218 -0.075863175 -0.0048545776 0.58691573 -0.024696246 0.59629858 0.69430912 -0.046978045
22625837500 0.50295627 -0.32827193 0.2617642 0.56082356 0.23757342 0.58522779 0.58610409 -0.29573318
22634115625 0.28654709 -0.49631095 0.50250894 0.39739203 0.49814513 0.44433689 0.41596878 -0.46207699
22642393750 0.023112798 -0.55801409 0.64039254 0.12861976 0.67317843 0.16979872 0.23184773 -0.55985713
22650671875 -0.24920312 -0.50143427 0.63256168 -0.1769634 0.68257362 -0.17365427 0.035525035 -0.62238222
22658950000 -0.47716752 -0.31707549 0.47301775 -0.44240895 0.4729203 -0.44247684 -0.31617779 -0.57353246
22667228125 -0.58116746 -0.037288498 0.22656684 -0.59397614 0.22802125 -0.58301616 -0.5199725 -0.40734321
22675506250 -0.52746475 0.25008982 -0.050433584 -0.62285221 -0.033885408 -0.60657048 -0.64756113 -0.17267911
22683784375 -0.35110116 0.46098754 -0.31017223 -0.5369966 -0.27160332 -0.53032237 -0.66995066 0.095289178
22692062500 -0.12171758 0.56052452 -0.51003063 -0.34829724 -0.45808899 -0.37485284 -0.58172566 0.34616631
22700340625 0.10999992 0.56603402 -0.60480553 -0.087191813 -0.57421684 -0.15943702 -0.40531933 0.53606361
22708618750 0.32908326 0.49128032 -0.56594539 0.17895126 -0.59673876 0.089675188 -0.17794828 0.63772869
22716896875 0.51541096 0.3269918 -0.42472136 0.38248825 -0.51535201 0.335096 0.063631766 0.65087438
22725175000 0.61792994 0.078844376 -0.23555186 0.50485522 -0.3327843 0.53025728 0.29266268 0.57838577
22733453125 0.58879209 -0.20476066 -0.026804261 0.55806577 -0.07877811 0.63514191 0.4854278 0.42735437
22741731250 0.41451395 -0.44503981 0.19699062 0.54318285 0.20336731 0.61954653 0.60789835 0.20660992
22750009375 0.1357182 -0.55532312 0.41982999 0.43886453 0.46122468 0.4822872 0.63492972 -0.051308069
22758287500 -0.14615276 -0.4967449 0.60010839 0.23042658 0.64082372 0.23647256 0.55216146 -0.30157563
22766565625 -0.3289738 -0.31451187 0.67382735 -0.065451592 0.69168973 -0.077317022 0.37365967 -0.49462605
22774843750 -0.38530746 -0.10723507 0.59043515 -0.38348702 0.58673733 -0.38784012 0.13622595 -0.59903997
22783121875 -0.36558959 0.068948165 0.34588981 -0.63042444 0.34224278 -0.60965371 -0.12111676 -0.60245281
22791400000 -0.34937194 0.3556737 0.034478288 -0.67596883 0.033252835 -0.6756044 -0.35741365 -0.50140899
22799678125 -0.15913829 0.49222022 -0.26625252 -0.6155948 -0.25718725 -0.60590845 -0.5344786 -0.3172653
22807956250 0.082405701 0.52371109 -0.4974308 -0.43519363 -0.47627795 -0.42920819 -0.62248892 -0.078005582
22816234375 0.312327 0.42702079 -0.62838727 -0.18800695 -0.59858078 -0.1930279 -0.60450369 0.17295709
22824512500 0.46127665 0.22548947 -0.65636504 0.088818155 -0.62252045 0.063879013 -0.48709029 0.38785705
22832790625 0.48133355 -0.019076245 -0.5713042 0.36273873 -0.55001163 0.31231427 -0.30268845 0.52822876
22841068750 0.37664112 -0.2297229 -0.3685675 0.5922007 -0.38140818 0.52313566 -0.093217909 0.58148289
22849346875 0.19126992 -0.34860665 -0.06719958 0.71162146 -0.12603001 0.65696567 0.1041446 0.56124502
22857625000 -0.010873541 -0.36194018 0.26624268 0.6709882 0.17990156 0.66289955 0.27341247 0.48909998
22865903125 -0.18963069 -0.28848445 0.54142541 0.4741497 0.46596238 0.52219307 0.42104751 0.37701294
22874181250 -0.3179518 -0.14251648 0.68392652 0.17634368 0.65437818 0.25975779 0.54117495 0.2119654
22882459375 -0.36385751 0.055533439 0.67327082 -0.13856588 0.70020586 -0.060265463 0.59993553 -0.012317484
22890737500 -0.30126542 0.25664169 0.53537899 -0.40027931 0.59747326 -0.36424586 0.55541754 -0.26539254
22899015625 -0.14183448 0.39863253 0.3170653 -0.57362914 0.37247276 -0.58536792 0.39253029 -0.48239198
22907293750 0.066167429 0.44177794 0.055458847 -0.65254319 0.077545673 -0.68173254 0.14490426 -0.60321057
22915571875 0.2655583 0.38026243 -0.22252798 -0.62532538 -0.22530869 -0.64126498 -0.12702405 -0.6035614
22923850000 0.39302036 0.26591581 -0.47831851 -0.47818342 -0.4794755 -0.47765359 -0.36670965 -0.49382189
22932128125 0.46534383 0.062573567 -0.64802247 -0.22306475 -0.63274956 -0.21381143 -0.53246313 -0.29289043
22940406250 0.43788972 -0.16690694 -0.68351299 0.087237008 -0.65054703 0.083503902 -0.59771866 -0.054458037
22948684375 0.29008532 -0.37296811 -0.57202244 0.37914217 -0.53802204 0.3480356 -0.56481194 0.17626265
22956962500 0.037627131 -0.47942805 -0.34415728 0.58383477 -0.33261424 0.53310472 -0.45824385 0.36674067
22965240625 -0.24499141 -0.43164617 -0.058030639 0.66639757 -0.075319082 0.61287892 -0.30078173 0.50365335
22973518750 -0.45665985 -0.23614845 0.22812241 0.61960089 0.18622808 0.57959449 -0.1111679 0.58291918
22981796875 -0.5314514 0.032089282 0.46556386 0.46357939 0.40541553 0.44414321 0.097548351 0.59789419
22990075000 -0.46657073 0.28773192 0.62136495 0.22371635 0.54950172 0.23557603 0.31008142 0.54082566
22998353125 -0.30121371 0.47023961 0.66126019 -0.066621117 0.5973208 -0.011646626 0.49941963 0.40145704
23006631250 -0.087474458 0.56114888 0.56469101 -0.35135141 0.54397798 -0.26178539 0.63135278 0.18532546
23014909375 0.14225739 0.56460387 0.34700194 -0.55980045 0.38775259 -0.47499979 0.66318166 -0.082318142
23023187500 0.36534217 0.47263512 0.067011066 -0.63929617 0.14705122 -0.60504705 0.57319105 -0.34588778
23031465625 0.54066098 0.27832016 -0.20458712 -0.59196138 -0.1361814 -0.61491442 0.37760168 -0.5466699
23039743750 0.60805678 0.0067638783 -0.42299426 -0.44531715 -0.39733854 -0.49228194 0.12111929 -0.6485365
23048021875 0.52916557 -0.27246025 -0.55966693 -0.2303538 -0.57154506 -0.25956094 -0.1547112 -0.64119047
23056300000 0.33968177 -0.45093414 -0.63131106 0.0033527545 -0.63113368 0.0037836134 -0.44839188 -0.49916008
23064578125 0.07889042 -0.56292844 -0.57104164 0.27600273 -0.5519712 0.28380606 -0.61154658 -0.28281429
23072856250 -0.21735489 -0.54228222 -0.39497966 0.49593243 -0.36011088 0.48466018 -0.67875308 -0.01870726
23081134375 -0.47630998 -0.37872627 -0.14230497 0.61326861 -0.11447756 0.57389832 -0.63420147 0.25038674
23089412500 -0.62691903 -0.10695905 0.13069691 0.60833395 0.13331962 0.55481738 -0.48611739 0.48040968
23097690625 -0.62965143 0.20179853 0.3695935 0.49179903 0.34389755 0.44132033 -0.25832242 0.62860656
23105968750 -0.49307036 0.47062874 0.5377298 0.29196543 0.49171218 0.25941089 0.0024995871 0.67439085
23114246875 -0.25657746 0.64629108 0.61140227 0.040351629 0.55275685 0.03166493 0.25202641 0.61512041
23122525000 0.026579129 0.70237041 0.57242584 -0.22237372 0.51440889 -0.20307447 0.4572393 0.47600925
23130803125 0.30486119 0.63187045 0.42116615 -0.44170848 0.37667638 -0.39782912 0.60068733 0.27493602
23139081250 0.52911365 0.45025373 0.19494706 -0.5731042 0.17477247 -0.51236373 0.66795886 0.030891843
23147359375 0.65642488 0.18496902 -0.060040925 -0.59943706 -0.046408888 -0.53387415 0.63911533 -0.22935413
23155637500 0.65623212 -0.11845428 -0.30523366 -0.5233891 -0.25457621 -0.47366637 0.50612813 -0.46691403
23163915625 0.51021606 -0.39138329 -0.49953783 -0.35017332 -0.4328641 -0.3412945 0.28505161 -0.63691568
23172193750 0.2536473 -0.56446487 -0.60627675 -0.10481816 -0.55762911 -0.13654864 0.0077840779 -0.70653141
23180471875 -0.045953985 -0.59958172 -0.59517413 0.16847603 -0.58536851 0.12593295 -0.2791183 -0.65710551
23188750000 -0.32702535 -0.50488883 -0.45801795 0.40775806 -0.45784619 0.40747079 -0.53826743 -0.43176726
23197028125 -0.52683473 -0.29816902 -0.2362541 0.56044734 -0.22153771 0.56581616 -0.66918474 -0.18454567
23205306250 -0.61702085 -0.026885558 0.024905603 0.59872186 0.053506922 0.58881736 -0.69678777 0.091054663
23213584375 -0.57972354 0.25795436 0.26737261 0.52177823 0.2941764 0.48973268 -0.61823726 0.36350951
23221862500 -0.41960621 0.5011757 0.44815505 0.36237255 0.45404011 0.30994132 -0.42914918 0.5869472
23230140625 -0.16540772 0.64584106 0.54993677 0.15664463 0.52424592 0.10029817 -0.15912357 0.70943779
23238418750 0.12643383 0.66164994 0.5765059 -0.070689321 0.5170843 -0.11019812 0.13577926 0.70271534
23246696875 0.39182726 0.5458017 0.51834708 -0.30583477 0.43889928 -0.30640242 0.3893269 0.57255065
23254975000 0.57521486 0.32600209 0.35683537 -0.51738954 0.28728127 -0.47169968 0.55489159 0.3598046
23263253125 0.64144546 0.053238358 0.096294545 -0.64514011 0.064825803 -0.56749523 0.6152994 0.11973961
23271531250 0.58560777 -0.21687151 -0.20889403 -0.63455635 -0.19088483 -0.55537838 0.59151715 -0.10382207
23279809375 0.41782305 -0.43869072 -0.47722796 -0.47683746 -0.42136532 -0.42587161 0.50736785 -0.30078667
23288087500 0.16109671 -0.56390315 -0.64016443 -0.21297653 -0.57402587 -0.20390186 0.3657715 -0.46999204
23296365625 -0.13161448 -0.5466994 -0.66159552 0.093928516 -0.61443985 0.068687811 0.15687318 -0.59090376
23304643750 -0.3723006 -0.38519955 -0.5461992 0.36779842 -0.52982819 0.33397755 -0.1008327 -0.62161165
23312921875 -0.49452877 -0.13315527 -0.33022356 0.55955374 -0.3330518 0.53875917 -0.36047211 -0.53396016
23321200000 -0.51876539 0.17524889 -0.057879187 0.63875496 -0.056789018 0.63711756 -0.56235313 -0.34117186
23329478125 -0.38478872 0.38214034 0.22043315 0.60368556 0.23522325 0.60402775 -0.65632558 -0.079849876
23337756250 -0.19216894 0.50426531 0.46296942 0.44454464 0.48592037 0.42935267 -0.63696671 0.18694648
23346034375 0.025167946 0.54473692 0.60017723 0.19081447 0.61297864 0.15837125 -0.52160197 0.41803154
23354312500 0.25288269 0.49634105 0.60205358 -0.082019113 0.59465235 -0.11831839 -0.32770398 0.58720309
23362590625 0.45356241 0.3390463 0.49887866 -0.30547348 0.47560379 -0.33608165 -0.082505815 0.66633391
23370868750 0.56059062 0.081778854 0.33892408 -0.46393222 0.30289802 -0.48373333 0.17099166 0.63991374
23379146875 0.51354384 -0.21845821 0.14020586 -0.56658816 0.095108926 -0.56739342 0.38860378 0.51438904
23387425000 0.29178223 -0.45269454 -0.095048264 -0.6013425 -0.1384102 -0.57881165 0.52974057 0.32026595
23395703125 -0.035809912 -0.50875384 -0.35453129 -0.53865868 -0.38330281 -0.4958477 0.57936805 0.0993305
23403981250 -0.31697878 -0.35307428 -0.58712393 -0.35042197 -0.59258014 -0.29633817 0.54715818 -0.10380232
23412259375 -0.42510128 -0.088712439 -0.71620673 -0.048658859 -0.69307995 0.0058667492 0.46845216 -0.26978865
23420537500 -0.37291336 0.13695081 -0.68125361 0.30647212 -0.62683249 0.34130335 0.35764399 -0.42464253
23428815625 -0.26172316 0.26855943 -0.45663953 0.60845989 -0.39289218 0.60252452 0.17474841 -0.56702524
23437093750 -0.14862441 0.35429987 -0.10129041 0.74376953 -0.060162276 0.70633823 -0.10198569 -0.62195545
23445371875 -0.0040052282 0.42021886 0.25054905 0.67365295 0.26228362 0.63157701 -0.39093807 -0.51275206
23453650000 0.21411397 0.45299944 0.44041777 0.48044783 0.44134608 0.48016107 -0.56215739 -0.312154
23461928125 0.3910875 0.29456124 0.59552622 0.24673739 0.61108238 0.24084394 -0.65075636 -0.05339919
23470206250 0.46002394 0.065955542 0.64103734 -0.026100416 0.65750754 -0.053164061 -0.61587071 0.20863107
23478484375 0.40756866 -0.16341928 0.57073647 -0.29827598 0.56353831 -0.34147418 -0.48207444 0.41963252
23486762500 0.25570899 -0.33438161 0.38682738 -0.51871341 0.34685194 -0.5544188 -0.29404664 0.55568159
23495040625 0.047392227 -0.41842362 0.11943045 -0.63709819 0.060106877 -0.6385377 -0.082312077 0.61834043
23503318750 -0.18331413 -0.40221825 -0.17700166 -0.61802357 -0.22322287 -0.5816986 0.14194697 0.61033994
23511596875 -0.39246958 -0.27718216 -0.42365149 -0.46706918 -0.43444777 -0.41504729 0.3553412 0.52034259
23519875000 -0.52124935 -0.052080195 -0.56580174 -0.23059013 -0.54957956 -0.19262469 0.5247308 0.34984279
23528153125 -0.52001798 0.21725659 -0.59234661 0.025495425 -0.57226837 0.044399559 0.61860049 0.12313671
23536431250 -0.38215697 0.45295271 -0.52234429 0.25785637 -0.50666898 0.27278656 0.61930752 -0.126781
23544709375 -0.14465488 0.59037375 -0.37444031 0.44655779 -0.35156438 0.46384349 0.52048689 -0.3661451
23552987500 0.12472806 0.59707391 -0.16225231 0.57192475 -0.12473463 0.57650161 0.33072287 -0.55221081
23561265625 0.36102903 0.47951493 0.10043671 0.60156876 0.13488628 0.57916045 0.074752562 -0.64670521
23569543750 0.51939291 0.27474129 0.36323774 0.50207734 0.37111643 0.46804324 -0.20039129 -0.6288026
23577821875 0.57892567 0.01796177 0.54951382 0.2856805 0.53875661 0.26773056 -0.44649762 -0.50210786
23586100000 0.51277953 -0.25528684 0.60964006 0.011602798 0.61000609 0.011187845 -0.62576044 -0.28682435
23594378125 0.31189987 -0.47737807 0.544366 -0.24865623 0.56080061 -0.26080662 -0.70487869 -0.013518521
23602656250 0.016000234 -0.56989241 0.3808977 -0.44890082 0.38788784 -0.48675144 -0.66403061 0.27168146
23610934375 -0.28415763 -0.49878612 0.15480405 -0.56330967 0.12618795 -0.60727155 -0.51191539 0.51508546
23619212500 -0.49852702 -0.29574415 -0.097453021 -0.5762043 -0.15816458 -0.58818913 -0.27890277 0.67785269
23627490625 -0.58503562 -0.032973342 -0.33959717 -0.48110172 -0.3897402 -0.44036704 0.0023844822 0.73672694
23635768750 -0.55102271 0.21574152 -0.52092052 -0.28371075 -0.51954597 -0.22163048 0.28376999 0.68157816
23644046875 -0.435357 0.41654196 -0.58889318 -0.016532855 -0.54084277 0.01069242 0.51911229 0.51649791
23652325000 -0.26336351 0.56487858 -0.516258 0.24544583 -0.47770295 0.21620506 0.66822207 0.2741065
23660603125 -0.038340833 0.65245968 -0.33816421 0.42585012 -0.35260075 0.37984842 0.71133465 -0.0044549205
23668881250 0.23260956 0.64258462 -0.12241101 0.49782726 -0.17657191 0.49010608 0.64109045 -0.27785805
23677159375 0.4966214 0.5025121 0.076177001 0.48362285 0.034466863 0.5301224 0.47232842 -0.50009447
23685437500 0.67681611 0.22822359 0.24360259 0.4100832 0.25578767 0.48037139 0.23243366 -0.63718951
23693715625 0.69944358 -0.12187845 0.37843263 0.29363337 0.44592011 0.3360016 -0.038370624 -0.67446148
23701993750 0.53192776 -0.44774023 0.47467971 0.13555677 0.55831528 0.11445928 -0.30344489 -0.60895795
23710271875 0.21187887 -0.64008528 0.51475811 -0.06375625 0.55990839 -0.14339751 -0.53179282 -0.44549355
23718550000 -0.088464469 -0.61444902 0.44341841 -0.37870088 0.44350398 -0.37967736 -0.68882728 -0.19637346
23726828125 -0.38555419 -0.49947733 0.22840987 -0.53144622 0.23593576 -0.53634727 -0.73221219 0.093160808
23735106250 -0.59008503 -0.25538808 -0.025481742 -0.56909227 -0.020123824 -0.58569717 -0.65280414 0.38139918
23743384375 -0.65349537 0.052599341 -0.26050484 -0.4964177 -0.2725029 -0.51942015 -0.46399623 0.61718172
23751662500 -0.56343937 0.34900287 -0.43835497 -0.33628795 -0.46987844 -0.34657368 -0.19053255 0.75937396
23759940625 -0.35704651 0.56196058 -0.53562999 -0.12479736 -0.5678305 -0.10890181 0.11814168 0.77724802
23768218750 -0.089806043 0.6571182 -0.53875703 0.10786248 -0.55214232 0.14237516 0.41020462 0.66493857
23776496875 0.18136935 0.63454998 -0.44705975 0.32307577 -0.43590516 0.35744277 0.63080609 0.4410992
23784775000 0.41623217 0.50895846 -0.27331167 0.48272553 -0.24621396 0.50044286 0.73255754 0.14784075
23793053125 0.58374965 0.29685014 -0.04530317 0.55744278 -0.018391477 0.55422759 0.69964993 -0.15434986
23801331250 0.64685279 0.028704371 0.19364467 0.53001297 0.20952035 0.51620358 0.55262911 -0.40030572
23809609375 0.58123714 -0.24510278 0.40170839 0.40333807 0.40998787 0.39160857 0.33707839 -0.559264
23817887500 0.39627692 -0.46052077 0.54197991 0.19895478 0.54617733 0.18657696 0.095142655 -0.62566727
23826165625 0.13417357 -0.56036299 0.58368337 -0.050470252 0.58296663 -0.064509168 -0.14553298 -0.61218584
23834443750 -0.13941455 -0.52618551 0.51160848 -0.3023228 0.50286353 -0.31174093 -0.37566015 -0.51959389
23842721875 -0.35691944 -0.37312591 0.33135515 -0.49850965 0.32369167 -0.49965394 -0.56793177 -0.34453624
23851000000 -0.57310897 -0.089350879 0.077202715 -0.60102516 0.076531656 -0.60097182 -0.68502069 -0.092959315
23859278125 -0.56724149 0.18407783 -0.18831491 -0.5686847 -0.17684737 -0.57720119 -0.68841475 0.19040091
23867556250 -0.43575409 0.42520663 -0.40407258 -0.43060762 -0.40068728 -0.46164832 -0.56953424 0.45391905
23875834375 -0.20207934 0.57950866 -0.5425055 -0.22518583 -0.57171935 -0.26195484 -0.34784156 0.63976353
23884112500 0.079289705 0.60007507 -0.59324598 0.014396351 -0.65338308 0.0072896192 -0.080601849 0.71067959
23892390625 0.33269551 0.47709507 -0.54843116 0.26538277 -0.60262764 0.30948544 0.17539181 0.67445558
23900668750 0.48136377 0.24872366 -0.39596474 0.48860303 -0.40007886 0.56624603 0.39470536 0.56381786
23908946875 0.49436334 -0.0071005663 -0.14636418 0.63300198 -0.089377105 0.68222564 0.57284957 0.38328108
23917225000 0.39205208 -0.22267351 0.15902004 0.64926064 0.22440459 0.63325757 0.68045789 0.13077067
23925503125 0.21209861 -0.361274 0.44644174 0.51200175 0.4630309 0.45825437 0.66760778 -0.15868436
23933781250 -0.0073037175 -0.3985593 0.6301713 0.24860179 0.59782839 0.21631332 0.52545637 -0.41369784
23942059375 -0.21304281 -0.32759741 0.66336268 -0.061216097 0.6250878 -0.047244806 0.29313201 -0.573722
23950337500 -0.35625458 -0.17193218 0.55856764 -0.34000453 0.5529092 -0.30043611 0.030070277 -0.62057263
23958615625 -0.4092831 0.024718773 0.352974 -0.5397476 0.3839795 -0.51063907 -0.21146975 -0.56386554
23966893750 -0.37455523 0.22110209 0.087090917 -0.63600147 0.13155463 -0.63838911 -0.40199295 -0.43532711
23975171875 -0.25885162 0.39081118 -0.19730443 -0.60732001 -0.16394781 -0.64056349 -0.53715587 -0.26205677
23983450000 -0.047552064 0.51215309 -0.40617487 -0.48457283 -0.40640157 -0.4837653 -0.65705788 -0.051129982
23991728125 0.18054652 0.48099607 -0.58211392 -0.26156849 -0.57764888 -0.26544777 -0.64627206 0.20959269
24000006250 0.39965278 0.32639077 -0.63662744 -0.0044170716 -0.64448893 0.00080180418 -0.54673743 0.4120498
24008284375 0.51069379 0.079856046 -0.57978302 0.26813877 -0.59913069 0.27721769 -0.35116327 0.58906221
24016562500 0.47067448 -0.21208872 -0.41390395 0.49278343 -0.43491676 0.5273152 -0.10697823 0.66923928
24024840625 0.26275057 -0.44214225 -0.16526486 0.62877506 -0.15354711 0.68862677 0.13825396 0.65115488
24033118750 -0.041511878 -0.51465642 0.12518956 0.64825261 0.18912457 0.68991542 0.35541219 0.55452579
24041396875 -0.32202241 -0.40701848 0.40348098 0.53702229 0.48589742 0.51517093 0.53387731 0.39390028
24049675000 -0.48309252 -0.18556584 0.60919935 0.30589086 0.64635801 0.2283788 0.65740067 0.16663976
24057953125 -0.51222968 0.054796603 0.68682534 -0.0057656863 0.65670156 -0.077131562 0.68988436 -0.11982346
24066231250 -0.44847071 0.26011223 0.60010183 -0.31966305 0.54077405 -0.33712 0.58173186 -0.4161334
24074509375 -0.32348609 0.42637163 0.37669238 -0.54435945 0.34023938 -0.51753342 0.33517146 -0.63676715
24082787500 -0.13415061 0.5403018 0.094531454 -0.62679839 0.094838716 -0.59824592 0.018106222 -0.70911342
24091065625 0.10596497 0.56471986 -0.17010248 -0.5853467 -0.1556049 -0.57759303 -0.27472249 -0.63449067
24099343750 0.34724262 0.46581289 -0.38328785 -0.45396331 -0.37800843 -0.45918328 -0.49009353 -0.46548176
24107621875 0.51954401 0.25258222 -0.53132057 -0.25959173 -0.53183776 -0.25750831 -0.6229732 -0.25149724
24115900000 0.56930822 -0.025181871 -0.59877878 -0.018437594 -0.59860742 -0.018082686 -0.69456041 -0.02085996
24124178125 0.478129 -0.29660019 -0.55909204 0.24153408 -0.55080241 0.23925285 -0.66853511 0.23959547
24132456250 0.27273858 -0.49653938 -0.40143657 0.46781161 -0.39737898 0.44941345 -0.54554409 0.47943115
24140734375 -0.0048756022 -0.58696127 -0.14902186 0.59659481 -0.16995867 0.57765228 -0.33457521 0.66426259
24149012500 -0.30509651 -0.54202914 0.12902761 0.58631963 0.094773456 0.5996272 -0.058396835 0.75839746
24157290625 -0.56254786 -0.35286456 0.35498628 0.45609015 0.35006532 0.49994138 0.24347094 0.73158509
24165568750 -0.70035595 -0.052546494 0.4913584 0.26204941 0.53623003 0.29310787 0.51223814 0.58372903
24173846875 -0.67157716 0.28058815 0.5429818 0.049868539 0.6034444 0.023817554 0.69764996 0.34354636
24182125000 -0.48447001 0.55550593 0.52382368 -0.16283844 0.53908497 -0.2375975 0.78170896 0.052049924
24190403125 -0.19545379 0.70056909 0.43080097 -0.36682162 0.37464583 -0.43123397 0.75103003 -0.26370779
24198681250 0.11281021 0.69354922 0.24851955 -0.53659946 0.1576577 -0.5350616 0.58125967 -0.55680722
24206959375 0.37159786 0.56359565 -0.017759074 -0.61407745 -0.072471701 -0.54320496 0.28785682 -0.7426824
24215237500 0.55367905 0.35087147 -0.30281189 -0.5424667 -0.28170815 -0.4651677 -0.046661548 -0.7692979
24223515625 0.64080989 0.075293139 -0.50657254 -0.33663493 -0.44732642 -0.3152599 -0.33807141 -0.65631926
24231793750 0.59953415 -0.22715096 -0.58087647 -0.077748105 -0.54687309 -0.10750516 -0.5425511 -0.4539203
24240071875 0.41505721 -0.48736033 -0.54077715 0.16623116 -0.55563474 0.13545071 -0.65156955 -0.20979716
24248350000 0.12565865 -0.62714291 -0.41859752 0.36503866 -0.41914502 0.36553201 -0.73343581 0.073355533
24256628125 -0.1893315 -0.61448842 -0.23598509 0.49674737 -0.22846067 0.5073477 -0.67266208 0.33323589
24264906250 -0.4546873 -0.45775101 -0.016453696 0.55459845 0.0050082658 0.55631018 -0.52543992 0.56762993
24273184375 -0.60984349 -0.20801365 0.21845084 0.51991957 0.23499624 0.50225049 -0.28846994 0.74718201
24281462500 -0.64446831 0.067054801 0.42738095 0.38130769 0.42095944 0.36035314 0.026999341 0.82433766
24289740625 -0.57545358 0.32481939 0.5504961 0.15606789 0.53353101 0.158361 0.36264721 0.75089693
24298018750 -0.41731557 0.54750371 0.55687231 -0.094831966 0.5599615 -0.072703831 0.63588738 0.53203821
24306296875 -0.16610399 0.70042998 0.45782948 -0.31049335 0.49303091 -0.30539221 0.7854836 0.21616295
24314575000 0.15106238 0.73218596 0.29210371 -0.46385163 0.32554561 -0.50237066 0.78390795 -0.12776332
24322853125 0.47063187 0.60760522 0.082274489 -0.54916757 0.070426315 -0.61248696 0.64097887 -0.43281239
24331131250 0.6982947 0.32879886 -0.15470895 -0.54751837 -0.21794032 -0.58482242 0.39282531 -0.63993037
24339409375 0.75614381 -0.033947837 -0.38414544 -0.44156075 -0.45568293 -0.41837835 0.097560152 -0.72436291
24347687500 0.6227867 -0.37094906 -0.55141157 -0.2316501 -0.58020049 -0.16807945 -0.19321336 -0.6929217
24355965625 0.35197607 -0.5857538 -0.60060084 0.04116739 -0.57887071 0.094356358 -0.44391361 -0.56135297
24364243750 0.031699434 -0.64378095 -0.5125677 0.30416766 -0.47529757 0.31921226 -0.62698352 -0.35105753
24372521875 -0.26513213 -0.55567533 -0.31755605 0.48754352 -0.29847592 0.47924307 -0.7187621 -0.090906404
24380800000 -0.53461856 -0.33226445 -0.079144567 0.55365556 -0.078226604 0.55195922 -0.70987797 0.18175302
24389078125 -0.63411444 -0.056145612 0.15330023 0.52205735 0.15538071 0.5356577 -0.6039269 0.43067971
24397356250 -0.59404546 0.22802296 0.34282359 0.40920427 0.36110282 0.42490676 -0.41286001 0.62940532
24405634375 -0.43240634 0.45431334 0.47569874 0.2408344 0.50506926 0.24277742 -0.1524379 0.74922168
24413912500 -0.19629815 0.57748771 0.54168588 0.034108225 0.56716943 0.018999135 0.14535503 0.75883037
24422190625 0.058663584 0.58378392 0.52496606 -0.19470297 0.5394457 -0.21521014 0.42901298 0.64337671
24430468750 0.28684086 0.48561507 0.40937895 -0.4145484 0.41984895 -0.43386364 0.64490253 0.41707933
24438746875 0.45355397 0.30215544 0.19357368 -0.57255894 0.20532352 -0.59922063 0.74659222 0.11927563
24447025000 0.52710825 0.057556354 -0.086208902 -0.6133936 -0.08801949 -0.65964013 0.71466398 -0.19054477
24455303125 0.48090172 -0.20569879 -0.35918674 -0.5146637 -0.39805096 -0.56289816 0.56344074 -0.45119667
24463581250 0.30436602 -0.42423671 -0.55274659 -0.29708859 -0.62399691 -0.3099058 0.33201748 -0.62644017
24471859375 0.031487748 -0.52630579 -0.62229711 -0.017889824 -0.68552274 0.020397604 0.056195028 -0.70331216
24480137500 -0.25717449 -0.4722653 -0.56149518 0.25612056 -0.57887846 0.31949472 -0.2312389 -0.66965789
24488415625 -0.46933815 -0.27868044 -0.38848442 0.46877483 -0.36564496 0.51966399 -0.48506472 -0.5221163
24496693750 -0.55299997 -0.016270278 -0.1472476 0.58545017 -0.10895993 0.6028381 -0.65252101 -0.28413111
24504971875 -0.50117904 0.24235734 0.1175283 0.58758587 0.14408495 0.57920903 -0.70549202 -0.0084745241
24513250000 -0.34177521 0.43782815 0.35519248 0.47483581 0.35501942 0.4740037 -0.6562891 0.24013285
24521528125 -0.10619573 0.53006166 0.5194695 0.27472502 0.51909941 0.28651217 -0.5210495 0.45605022
24529806250 0.14369653 0.49913463 0.5839361 0.027805904 0.59558076 0.044248395 -0.32621539 0.60820544
24538084375 0.34571251 0.35042077 0.54012889 -0.22003543 0.56206888 -0.20922849 -0.093324646 0.68259335
24546362500 0.45087975 0.12266275 0.39952984 -0.4297035 0.42813084 -0.42901781 0.15566128 0.67531359
24554640625 0.42859814 -0.12875915 0.17851906 -0.56402814 0.21192913 -0.57822311 0.39639452 0.5748316
24562918750 0.28544149 -0.33638671 -0.086563312 -0.59165752 -0.056338083 -0.62855905 0.58934891 0.3802242
24571196875 0.060154401 -0.44245964 -0.33884767 -0.49446672 -0.33455873 -0.55658537 0.68971103 0.11621683
24579475000 -0.18339126 -0.42502636 -0.51886243 -0.29390016 -0.56228566 -0.35365003 0.67178965 -0.1674066
24587753125 -0.3850894 -0.29642141 -0.58978915 -0.039724823 -0.67205918 -0.055451628 0.54819888 -0.42012224
24596031250 -0.50563288 -0.089092419 -0.54692179 0.21678647 -0.61576712 0.26068467 0.3351244 -0.60850376
24604309375 -0.51346213 0.1535714 -0.3986358 0.4285835 -0.41774651 0.50204867 0.057000913 -0.70350224
24612587500 -0.40609545 0.37518689 -0.17640598 0.55877388 -0.14676121 0.61278594 -0.2421743 -0.67255759
24620865625 -0.20375565 0.52411228 0.082507327 0.58183676 0.1267201 0.59734476 -0.50316244 -0.51782095
24629143750 0.052444935 0.5631786 0.32756674 0.48951223 0.35657337 0.47867516 -0.67004162 -0.27158824
24637421875 0.30878443 0.47110876 0.50839496 0.29634264 0.51514339 0.28367496 -0.71481466 0.0098531945
24645700000 0.4955219 0.25352696 0.58618379 0.042539883 0.58590585 0.042327672 -0.65058333 0.26953465
24653978125 0.55351895 -0.043001313 0.53927886 -0.21931542 0.54760063 -0.21272153 -0.50522411 0.47579864
24662256250 0.44021916 -0.3343842 0.38213599 -0.42729637 0.39773282 -0.42527825 -0.31314069 0.61990458
24670534375 0.19070002 -0.51692474 0.15691587 -0.54148251 0.17418893 -0.54348731 -0.084533922 0.70454645
24678812500 -0.10283493 -0.54113179 -0.088604316 -0.5482232 -0.06553977 -0.55372852 0.17937236 0.7114045
24687090625 -0.34989706 -0.42685354 -0.31025857 -0.45234224 -0.27880582 -0.47312382 0.44944489 0.60986942
24695368750 -0.50663602 -0.23412588 -0.47012395 -0.27488685 -0.44260961 -0.32407293 0.66668487 0.39077896
24703646875 -0.57072657 -0.0099867219 -0.53818119 -0.046998106 -0.54712218 -0.12444735 0.77586007 0.086867824
24711925000 -0.54841369 0.21896459 -0.50031853 0.18319534 -0.57163531 0.1150844 0.73702955 -0.23986991
24720203125 -0.43917874 0.43573266 -0.3741205 0.37293372 -0.48771879 0.36871588 0.5582478 -0.51146293
24728481250 -0.23088375 0.60385907 -0.18415907 0.49323535 -0.2722387 0.57378423 0.29304215 -0.67030436
24736759375 0.05980676 0.66646421 0.040253226 0.5296154 0.039990671 0.64308506 0.0089277504 -0.7145263
24745037500 0.36963326 0.56692505 0.26781967 0.4668574 0.33779204 0.52592319 -0.26594746 -0.66334105
24753315625 0.59077239 0.30798346 0.44897988 0.30317447 0.50939345 0.28986415 -0.51868504 -0.51547188
24761593750 0.64311957 -0.027969021 0.53415942 0.071110941 0.5413729 0.040960394 -0.70061529 -0.2608079
24769871875 0.52519155 -0.33138105 0.50146347 -0.17009561 0.48258245 -0.16684376 -0.75326836 0.056097858
24778150000 0.34115049 -0.54299963 0.40619916 -0.35448036 0.40596932 -0.35424352 -0.65868795 0.35282594
24786428125 0.030843213 -0.65465808 0.20384482 -0.49053937 0.22384529 -0.4828766 -0.48602298 0.56713009
24794706250 -0.29763684 -0.5993188 -0.026418842 -0.51584536 0.0060709775 -0.53131098 -0.2513985 0.70510674
24802984375 -0.55684626 -0.39148265 -0.23151633 -0.44617876 -0.21781336 -0.48607013 0.020187857 0.75312501
24811262500 -0.67934126 -0.090512194 -0.38614976 -0.3112334 -0.40402743 -0.34513327 0.29920778 0.69876492
24819540625 -0.64652628 0.21818896 -0.48228371 -0.13280803 -0.50725222 -0.13742058 0.54700404 0.53929043
24827818750 -0.48653942 0.46382412 -0.50767761 0.078212343 -0.50846058 0.087831967 0.72147036 0.28438237
24836096875 -0.25358951 0.61096507 -0.44062734 0.29997325 -0.42064232 0.28327078 0.78026247 -0.032180775
24844375000 0.0069262576 0.65253943 -0.26349968 0.47794068 -0.26854017 0.42336351 0.69320381 -0.35378796
24852653125 0.26512969 0.59491587 -0.012217787 0.54660183 -0.078602649 0.49801171 0.4738017 -0.6080519
24860931250 0.48919091 0.43402818 0.23173256 0.48034501 0.13027576 0.49695563 0.17236768 -0.73571044
24869209375 0.63092709 0.17795673 0.40224168 0.31852844 0.33484399 0.41051272 -0.13824071 -0.72744769
24877487500 0.64073092 -0.12886767 0.47939962 0.11883594 0.49457818 0.23325048 -0.40668771 -0.61136866
24885765625 0.50137842 -0.41403922 0.47570473 -0.079778127 0.55559599 -0.010536091 -0.6124593 -0.41477084
24894043750 0.23705186 -0.60037118 0.40324283 -0.25776476 0.49383628 -0.25784463 -0.7432161 -0.15522076
24902321875 -0.084412292 -0.6401242 0.27324572 -0.40052062 0.32822779 -0.44500548 -0.76919174 0.14845528
24910600000 -0.40299141 -0.5312382 0.07396768 -0.51453388 0.074411966 -0.51407576 -0.61362904 0.45546171
24918878125 -0.61075199 -0.29516119 -0.15528187 -0.50701618 -0.13926651 -0.48686317 -0.40475461 0.64422655
24927156250 -0.687931 0.0018949179 -0.36324155 -0.38923925 -0.31726852 -0.38409576 -0.13958229 0.74379694
24935434375 -0.63347328 0.30273142 -0.49123704 -0.19009285 -0.44248897 -0.22494331 0.14811385 0.73621583
24943712500 -0.4513039 0.55404407 -0.51457602 0.032124031 -0.49863154 -0.029548675 0.41156265 0.61523968
24951990625 -0.16954307 0.70095164 -0.45224008 0.23231259 -0.47638136 0.17709807 0.60493875 0.40270731
24960268750 0.15520185 0.70419675 -0.32784456 0.39402264 -0.3705667 0.36486727 0.70155329 0.13679102
24968546875 0.44701314 0.54933381 -0.14834812 0.50542569 -0.18913977 0.5008629 0.69392598 -0.14658348
24976825000 0.62698716 0.27156383 0.07735043 0.54385787 0.045320135 0.54802859 0.5765208 -0.41106829
24985103125 0.64597958 -0.050639085 0.31993571 0.47670114 0.28689688 0.48470324 0.36103973 -0.61156189
24993381250 0.51306254 -0.32760009 0.51708043 0.2890757 0.48064104 0.3136335 0.081082463 -0.71022689
25001659375 0.28229746 -0.50086313 0.59871793 0.018938705 0.5773949 0.068373576 -0.21575661 -0.68932062
25009937500 0.011196799 -0.55117631 0.53381759 -0.25323126 0.55076599 -0.1979689 -0.48234415 -0.55094546
25018215625 -0.25052932 -0.4811615 0.35708877 -0.45100704 0.40352812 -0.42337459 -0.67175835 -0.31514862
25026493750 -0.45326081 -0.30198976 0.12957069 -0.54386169 0.17103772 -0.55270708 -0.74827313 -0.02289677
25034771875 -0.5506537 -0.048449349 -0.099814594 -0.53924191 -0.086246625 -0.56202227 -0.69979894 0.27373499
25043050000 -0.57029021 0.21803956 -0.30577806 -0.45472652 -0.30567062 -0.4549796 -0.53268433 0.51634741
25051328125 -0.41832936 0.44358778 -0.47395569 -0.29862499 -0.46216619 -0.27810904 -0.29124093 0.67095119
25059606250 -0.17950548 0.56996524 -0.57132548 -0.076555662 -0.53067595 -0.060822878 -0.015756216 0.71452487
25067884375 0.088296443 0.57566679 -0.56791347 0.18147567 -0.50886953 0.16009527 0.24253681 0.6478774
25076162500 0.33376226 0.45929652 -0.44204599 0.42475528 -0.40398294 0.3558349 0.44408083 0.49663076
25084440625 0.50510561 0.23651548 -0.20995095 0.58768445 -0.22886828 0.50284553 0.57568324 0.29731655
25092718750 0.54892707 -0.057160631 0.075626999 0.6226114 0.0045604981 0.57213289 0.63632882 0.071313344
25100996875 0.43236732 -0.34613448 0.34486529 0.52430671 0.26247686 0.5302186 0.62212944 -0.16860075
25109275000 0.1721437 -0.52892005 0.53535998 0.31671008 0.48527554 0.36704764 0.52362567 -0.40570465
25117553125 -0.14194678 -0.54384685 0.61607647 0.053116176 0.61046147 0.1088728 0.32635662 -0.60592198
25125831250 -0.40466851 -0.395091 0.57655966 -0.21593915 0.5954203 -0.18156996 0.040893439 -0.71084344
25134109375 -0.54397821 -0.14792815 0.42457977 -0.44093677 0.44668174 -0.43210518 -0.27820516 -0.67552137
25142387500 -0.54971564 0.11820092 0.18995829 -0.58043677 0.19874515 -0.58275515 -0.54902345 -0.49409238
25150665625 -0.4395524 0.34608322 -0.080619186 -0.59959215 -0.085041463 -0.59732133 -0.7011444 -0.21511321
25158943750 -0.24452831 0.50038677 -0.32554263 -0.49833986 -0.33261195 -0.48251826 -0.71351641 0.084204018
25167221875 0.0014706077 0.55363071 -0.49536636 -0.30945235 -0.488913 -0.28133926 -0.60794657 0.33811948
25175500000 0.25287461 0.4774057 -0.57146561 -0.076980464 -0.5713954 -0.077068292 -0.48028064 0.52856994
25183778125 0.44672862 0.29035097 -0.55198884 0.16697195 -0.54226488 0.1754263 -0.24206059 0.66154438
25192056250 0.52642953 0.024362195 -0.43349463 0.38289079 -0.4108822 0.38767228 0.020181332 0.69033486
25200334375 0.46649107 -0.25246793 -0.23524624 0.53601056 -0.20483916 0.52552402 0.2632325 0.62358117
25208612500 0.27392164 -0.46389136 0.015155556 0.59161872 0.040773869 0.56106704 0.45525244 0.48108843
25216890625 0.0018945158 -0.5554679 0.27350497 0.53364533 0.28060082 0.48676759 0.58942688 0.29039755
25225168750 -0.27775556 -0.50320762 0.48315266 0.36231047 0.46207115 0.3130348 0.65891761 0.065617405
25233446875 -0.49954823 -0.32660642 0.59558749 0.1114327 0.54447752 0.079834245 0.6510371 -0.18435302
25241725000 -0.61404532 -0.066271707 0.58046532 -0.16313173 0.5177533 -0.15806952 0.54277736 -0.43462941
25250003125 -0.59483802 0.22056332 0.44473103 -0.39670423 0.39849639 -0.35493985 0.32476139 -0.63101411
25258281250 -0.43964142 0.47192964 0.22324052 -0.54263425 0.21443444 -0.48721775 0.027308514 -0.71806777
25266559375 -0.17985551 0.62590975 -0.031727236 -0.57977253 -0.0066431947 -0.53604394 -0.28129357 -0.66094756
25274837500 0.13153967 0.63457972 -0.2744115 -0.50311917 -0.23674841 -0.49074477 -0.53039348 -0.47499418
25283115625 0.41308084 0.48806733 -0.45888034 -0.33249089 -0.43395793 -0.34500608 -0.6716494 -0.20861928
25291393750 0.58709794 0.2212934 -0.5502255 -0.1025879 -0.54731148 -0.11699354 -0.69177967 0.079702765
25299671875 0.61000705 -0.095082529 -0.53508615 0.14138097 -0.54056227 0.14279954 -0.60455227 0.34731051
25307950000 0.4842658 -0.36956373 -0.40337548 0.35354817 -0.40395987 0.35466492 -0.47350264 0.58236384
25316228125 0.24508415 -0.56141871 -0.21358398 0.48362568 -0.20240322 0.48300672 -0.21735287 0.71992624
25324506250 -0.051355418 -0.61372656 0.0091803567 0.52076542 0.021785321 0.50868583 0.072819673 0.74666619
25332784375 -0.33064935 -0.52674073 0.22288111 0.46288472 0.22532611 0.44445536 0.34856671 0.65743148
25341062500 -0.53774542 -0.32889339 0.38970995 0.32232001 0.38448021 0.30860871 0.56602144 0.46811867
25349340625 -0.64039266 -0.066544436 0.48158062 0.13172345 0.4770253 0.12215868 0.69049317 0.21549159
25357618750 -0.62546259 0.21849795 0.48983923 -0.075996712 0.48487791 -0.089539684 0.71076214 -0.060505405
25365896875 -0.48622048 0.47696638 0.41667512 -0.26762098 0.40179601 -0.2883583 0.63174784 -0.32443148
25374175000 -0.23986135 0.65481979 0.27489409 -0.41751194 0.23966116 -0.43012345 0.45902589 -0.54295331
25382453125 0.07264518 0.70537466 0.078865916 -0.50381762 0.033791937 -0.48865286 0.20978051 -0.68655914
25390731250 0.38362479 0.60398179 -0.14714308 -0.50233299 -0.17361213 -0.45460781 -0.084632404 -0.72055089
25399009375 0.61231041 0.36223605 -0.35974389 -0.39387667 -0.34747207 -0.33975396 -0.37589112 -0.63098931
25407287500 0.70307869 0.039151065 -0.50359327 -0.19169815 -0.45993415 -0.16315983 -0.60826766 -0.425179
25415565625 0.63327825 -0.28946489 -0.53332561 0.056863125 -0.49001876 0.047798742 -0.73467594 -0.1404973
25423843750 0.41436097 -0.54685032 -0.44029802 0.28353468 -0.42332107 0.25785431 -0.73168498 0.17187874
25432121875 0.10272866 -0.66986561 -0.26445848 0.43283877 -0.26732358 0.41842356 -0.60731 0.45183396
25440400000 -0.25461483 -0.6407491 -0.055273026 0.48653406 -0.054836821 0.48630682 -0.41446441 0.67269653
25448678125 -0.51967472 -0.45242772 0.14623374 0.45300737 0.15990515 0.45608315 -0.12562793 0.78115374
25456956250 -0.6588729 -0.17270774 0.31103635 0.34973842 0.33095205 0.3365187 0.18602064 0.7651037
25465234375 -0.65845877 0.12520717 0.42616317 0.19352977 0.43178672 0.1642002 0.46983063 0.62343711
25473512500 -0.53834021 0.38023263 0.47249869 3.0912892e-005 0.45470673 -0.02531454 0.66931552 0.37679705
25481790625 -0.33496618 0.5591433 0.43177143 -0.20187227 0.40530953 -0.20621678 0.74699986 0.073497333
25490068750 -0.079979345 0.64594489 0.30374926 -0.36735252 0.29000217 -0.35753235 0.6961711 -0.22610228
25498346875 0.19559723 0.62447488 0.1186807 -0.45728126 0.11724799 -0.45380476 0.53632921 -0.46850398
25506625000 0.45173001 0.4814384 -0.082909793 -0.46126482 -0.092101328 -0.46866459 0.30781996 -0.62992579
25514903125 0.62509722 0.22739004 -0.26491174 -0.3861759 -0.28973579 -0.38275611 0.046592049 -0.69943559
25523181250 0.65764874 -0.09175244 -0.40342036 -0.24512543 -0.42326242 -0.21583019 -0.22752252 -0.67660862
25531459375 0.52907109 -0.39320436 -0.47752327 -0.055718452 -0.46741092 -0.01586975 -0.48857936 -0.55220896
25539737500 0.26832166 -0.59036291 -0.46474946 0.15570024 -0.42823398 0.17478222 -0.68897092 -0.32200104
25548015625 -0.048531555 -0.63696039 -0.35727254 0.34963232 -0.32200328 0.33431461 -0.77778196 -0.01633043
25556293750 -0.34144378 -0.53352213 -0.16665083 0.47705483 -0.16160162 0.44438741 -0.72473896 0.30053976
25564571875 -0.55387408 -0.31304574 0.062991574 0.5004223 0.039163638 0.48546726 -0.54331148 0.55900568
25572850000 -0.67941731 -0.029788988 0.27090058 0.4141345 0.27157873 0.41462135 -0.30809319 0.72589999
25581128125 -0.61699212 0.27220774 0.41334793 0.25505564 0.42650822 0.26201409 -0.0071308888 0.77871877
25589406250 -0.41747779 0.51183826 0.47648427 0.06011704 0.50250852 0.05008943 0.28831148 0.713781
25597684375 -0.13054021 0.62309921 0.46109426 -0.13919069 0.47350445 -0.17398685 0.53588343 0.54275
25605962500 0.16830723 0.58197224 0.36975583 -0.32218021 0.34893921 -0.35816529 0.70055187 0.28425282
25614240625 0.40182102 0.40887931 0.20428713 -0.46215609 0.16293724 -0.46708626 0.74577892 -0.024544839
25622518750 0.5174644 0.15940122 -0.018799182 -0.51945841 -0.045364887 -0.48998654 0.65780693 -0.32275778
25630796875 0.5080837 -0.098700069 -0.25523728 -0.46383178 -0.24496526 -0.4290612 0.45630038 -0.5532217
25639075000 0.39719459 -0.31656975 -0.43953919 -0.2988022 -0.40703768 -0.29309613 0.18901017 -0.67592293
25647353125 0.2104024 -0.46784449 -0.52066898 -0.069507487 -0.50432259 -0.09571287 -0.091140449 -0.685615
25655631250 -0.029007712 -0.53029418 -0.48977658 0.16189241 -0.50705826 0.13606317 -0.34477162 -0.59546334
25663909375 -0.28274319 -0.47635064 -0.36896014 0.3479825 -0.39989179 0.35044533 -0.54518616 -0.42684543
25672187500 -0.49093416 -0.29886329 -0.18945795 0.46717584 -0.20268959 0.49306017 -0.67816806 -0.19678599
25680465625 -0.58483124 -0.034774873 0.02038626 0.50620407 0.031823516 0.52920312 -0.71956712 0.07189469
25688743750 -0.53413665 0.24380812 0.23464932 0.45985103 0.25333887 0.46302548 -0.65223753 0.34639037
25697021875 -0.35309952 0.45960626 0.41997057 0.3224681 0.42691603 0.31501088 -0.47584873 0.57609636
25705300000 -0.093692794 0.56311738 0.53065252 0.10732626 0.53102356 0.10687249 -0.21930912 0.71402907
25713578125 0.19116507 0.52529836 0.52938139 -0.14292696 0.53462481 -0.13686535 0.068957537 0.7328546
25721856250 0.42404217 0.34513888 0.40955415 -0.36324269 0.42521772 -0.36545971 0.33194929 0.63936007
25730134375 0.53254539 0.064214319 0.20659399 -0.50150919 0.2153627 -0.5205543 0.53628904 0.46041235
25738412500 0.47535294 -0.23324987 -0.029221704 -0.53743201 -0.041917201 -0.55544579 0.66288865 0.22116978
25746690625 0.27104488 -0.44968009 -0.25336868 -0.4737494 -0.27690366 -0.47132233 0.69546974 -0.052825339
25754968750 -0.0081093898 -0.52270424 -0.43511841 -0.3236061 -0.44506711 -0.29941767 0.61726773 -0.32896471
25763246875 -0.26727939 -0.44507414 -0.5420242 -0.10651411 -0.52283901 -0.082958542 0.43053204 -0.55369854
25771525000 -0.43920034 -0.26365334 -0.54322416 0.14835535 -0.50790429 0.14311135 0.16485491 -0.68202353
25779803125 -0.50740176 -0.045031644 -0.42083105 0.38626188 -0.40153953 0.34626868 -0.12664331 -0.68831277
25788081250 -0.48256746 0.17109972 -0.19037072 0.53228754 -0.21541402 0.49121368 -0.39015397 -0.58089828
25796359375 -0.3772409 0.36837018 0.07250797 0.54444051 0.02141791 0.54033321 -0.58423609 -0.38831264
25804637500 -0.18027784 0.51501101 0.29159081 0.43772164 0.2568824 0.47476217 -0.69161981 -0.14374875
25812915625 0.087141588 0.55263174 0.42929083 0.26450807 0.43608341 0.3120462 -0.70677066 0.12196682
25821193750 0.35419527 0.44122845 0.48567513 0.068685517 0.52386302 0.091822229 -0.62371922 0.37923947
25829471875 0.53521824 0.19615726 0.47209939 -0.12910165 0.5110876 -0.14175121 -0.44643265 0.59304827
25837750000 0.54441804 -0.12548625 0.40425724 -0.35009947 0.40331236 -0.35013652 -0.19588412 0.72627729
25846028125 0.41885009 -0.40033346 0.21645649 -0.49507397 0.21123591 -0.49300161 0.094756044 0.74814636
25854306250 0.16200384 -0.57750416 -0.024604669 -0.54414362 -0.029215351 -0.53615671 0.37138996 0.65583217
25862584375 -0.15446898 -0.60006535 -0.26704249 -0.47737318 -0.26394776 -0.46238521 0.59258783 0.46498489
25870862500 -0.44075477 -0.457811 -0.45121473 -0.30309895 -0.43643281 -0.29143143 0.73062956 0.20257689
25879140625 -0.61540622 -0.19421971 -0.53012723 -0.068319216 -0.50641084 -0.068812214 0.75543177 -0.099961452
25887418750 -0.64112878 0.11671818 -0.49610353 0.16943794 -0.47453895 0.15209104 0.65569347 -0.39701882
25895696875 -0.51867968 0.39596921 -0.36542457 0.35993692 -0.35754651 0.33078954 0.43620062 -0.6305021
25903975000 -0.28835043 0.58433306 -0.17318632 0.47253194 -0.18364626 0.44298252 0.13650331 -0.7500577
25912253125 -0.002718043 0.64980948 0.043362487 0.49333993 0.017988972 0.47483361 -0.1825646 -0.73031813
25920531250 0.28033191 0.58525985 0.24376042 0.42327067 0.21330433 0.42155877 -0.45494235 -0.58302313
25928809375 0.51039118 0.40533942 0.39451331 0.28014669 0.36943036 0.29309669 -0.6376403 -0.34889174
25937087500 0.64194912 0.13621598 0.47230589 0.089093104 0.45853293 0.11024244 -0.71535581 -0.072929129
25945365625 0.63781321 -0.17248927 0.46418408 -0.11573955 0.46254331 -0.093936071 -0.68779743 0.20596181
25953643750 0.48832455 -0.45388055 0.37236649 -0.29974532 0.37922749 -0.28164092 -0.56169069 0.45547926
25961921875 0.21989235 -0.63064778 0.2116155 -0.42533848 0.22403736 -0.41789436 -0.35384429 0.64484251
25970200000 -0.11725258 -0.68251091 0.02354065 -0.45962927 0.023293739 -0.45978591 -0.12946415 0.79919505
25978478125 -0.41297826 -0.5812335 -0.16570002 -0.4320713 -0.17210451 -0.43170136 0.18560502 0.79486287
25986756250 -0.63878798 -0.35622731 -0.32963729 -0.32806006 -0.34275559 -0.31900358 0.48008502 0.66342545
25995034375 -0.74388099 -0.047866836 -0.43677482 -0.1639414 -0.4484632 -0.13720442 0.7050249 0.42219296
26003312500 -0.70214617 0.28173709 -0.46831626 0.030466383 -0.45891744 0.072428122 0.81692362 0.10589565
26011590625 -0.51476574 0.56235951 -0.41793305 0.22219166 -0.37509164 0.25847423 0.78998274 -0.23371102
26019868750 -0.21560481 0.73309934 -0.29061326 0.38114887 -0.22378281 0.38312259 0.62115461 -0.53524411
26028146875 0.13327593 0.74819034 -0.10189223 0.47383374 -0.043421764 0.43184888 0.34351927 -0.74065089
26036425000 0.45398411 0.60028523 0.11575145 0.47416806 0.13431197 0.40448236 0.0086139776 -0.80795562
26044703125 0.67189151 0.32199663 0.31283796 0.37476254 0.28478253 0.31429091 -0.31502554 -0.73641109
26052981250 0.73592776 -0.02551098 0.44164729 0.19526072 0.39088231 0.17160164 -0.5756343 -0.54696232
26061259375 0.63422596 -0.36239371 0.47323176 -0.01919947 0.43257636 -0.0080486638 -0.73892176 -0.28073621
26069537500 0.39111486 -0.61263001 0.40771592 -0.21684504 0.39178407 -0.19489798 -0.79321581 0.018678263
26077815625 0.063388214 -0.72026259 0.26894924 -0.35944837 0.26808649 -0.34495711 -0.73519146 0.31762728
26086093750 -0.27120081 -0.66965479 0.092967317 -0.42889026 0.094598666 -0.42172071 -0.56944335 0.57886654
26094371875 -0.53985262 -0.47836959 -0.088859536 -0.42261645 -0.088597767 -0.41946203 -0.31138515 0.76343626
26102650000 -0.701267 -0.21549782 -0.25212547 -0.34771186 -0.25222883 -0.34719563 -0.0025035872 0.8308568
26110928125 -0.71969122 0.10204375 -0.38100395 -0.21656607 -0.37501785 -0.21936144 0.3199468 0.77156532
26119206250 -0.60392261 0.39454854 -0.44449058 -0.033094857 -0.44404152 -0.047213051 0.59820163 0.58348101
26127484375 -0.37662223 0.61479688 -0.41664386 0.16261631 -0.43854257 0.15185405 0.77982849 0.29849985
26135762500 -0.066088557 0.72168303 -0.30513814 0.3223542 -0.33453101 0.34144497 0.82888293 -0.037158765
26144040625 0.27249238 0.6754362 -0.14311405 0.41448998 -0.142453 0.46326616 0.74354672 -0.36454913
26152318750 0.56016374 0.47142425 0.035081066 0.43603417 0.084520124 0.47104153 0.53521782 -0.63208312
26160596875 0.71878129 0.14743792 0.20768802 0.39109349 0.27725986 0.37293413 0.23406343 -0.79834169
26168875000 0.70134234 -0.21510616 0.35757247 0.28317964 0.39507616 0.21191292 -0.1109933 -0.82581085
26177153125 0.51042968 -0.51956415 0.46102569 0.11435481 0.43444771 0.031987749 -0.43317211 -0.70940393
26185431250 0.20487016 -0.69135863 0.48642403 -0.10179482 0.40695846 -0.14224289 -0.6786961 -0.47700131
26193709375 -0.13171886 -0.69649786 0.39903161 -0.32165608 0.3182393 -0.29445562 -0.80658227 -0.17219515
26201987500 -0.42258528 -0.55553091 0.20470165 -0.47341689 0.17317006 -0.4065488 -0.80522901 0.1511701
26210265625 -0.61605245 -0.30755845 -0.033562504 -0.50419021 -0.014022637 -0.45291814 -0.68563181 0.44109321
26218543750 -0.67874533 0.00044476305 -0.24325395 -0.42321602 -0.21162114 -0.40883809 -0.46995232 0.66050798
26226821875 -0.59143609 0.30188325 -0.38518012 -0.27407643 -0.36935079 -0.27801982 -0.19293731 0.78469485
26235100000 -0.37029082 0.52039295 -0.45296034 -0.093575843 -0.45354381 -0.093980402 0.11208007 0.80052757
26243378125 -0.08160726 0.61085916 -0.45488602 0.0986531 -0.45388919 0.10709107 0.40662733 0.69731504
26251656250 0.20856427 0.55141246 -0.38023511 0.28347012 -0.37426907 0.29282767 0.64023572 0.48244569
26259934375 0.42578375 0.36571017 -0.2267945 0.42873362 -0.22093673 0.43730471 0.76770592 0.19085047
26268212500 0.52670169 0.11040951 -0.013497683 0.49304655 -0.0056432118 0.50651306 0.76769316 -0.12419255
26276490625 0.50277668 -0.15548415 0.21186087 0.4473969 0.2324433 0.46558392 0.65210086 -0.41039476
26284768750 0.36166361 -0.38472784 0.38586479 0.29946989 0.42747265 0.30662602 0.44164413 -0.6366573
26293046875 0.12193165 -0.52680683 0.46610042 0.097451858 0.51757455 0.072251529 0.15581819 -0.77683181
26301325000 -0.17015554 -0.53171343 0.45218965 -0.10558725 0.48255971 -0.16877912 -0.17978805 -0.794617
26309603125 -0.43333617 -0.38135719 0.36667109 -0.27972916 0.34702647 -0.3556959 -0.50464344 -0.66460186
26317881250 -0.5805127 -0.10826806 0.22262803 -0.4120709 0.15501727 -0.45729572 -0.74245614 -0.40220234
26326159375 -0.56037682 0.20182881 0.024882935 -0.48313484 -0.051284205 -0.47042572 -0.83973199 -0.0680198
26334437500 -0.38443834 0.45223364 -0.20370227 -0.45712337 -0.24262783 -0.40303993 -0.79062486 0.2603122
26342715625 -0.11115476 0.57456917 -0.40048489 -0.31164816 -0.39313439 -0.26182979 -0.62625676 0.52571976
26350993750 0.18283547 0.54379392 -0.49368337 -0.083344407 -0.47001421 -0.062979966 -0.39193299 0.70436418
26359271875 0.42128408 0.3702718 -0.46010476 0.14934894 -0.44386825 0.14716637 -0.12210447 0.78957462
26367550000 0.53214216 0.048613679 -0.33448681 0.31966919 -0.33353046 0.31953782 0.16298583 0.78222728
26375828125 0.48075613 -0.24465635 -0.15749501 0.41872811 -0.161285 0.42717287 0.43866265 0.66935623
26384106250 0.28710166 -0.46430126 0.033062797 0.43536407 0.036595378 0.45146841 0.66282302 0.45731705
26392384375 0.016671935 -0.54926771 0.20950113 0.37717837 0.22481051 0.39182994 0.79353881 0.16653109
26400662500 -0.25180358 -0.49337685 0.35213384 0.25395495 0.37335429 0.25772461 0.80034882 -0.16394776
26408940625 -0.45608413 -0.32239461 0.43437722 0.073095694 0.45253021 0.067872338 0.67323142 -0.47792742
26417218750 -0.56036758 -0.081248976 0.42027873 -0.13769211 0.43614393 -0.14553577 0.42623794 -0.72304529
26425496875 -0.54972184 0.18696213 0.29579455 -0.31320551 0.31545064 -0.32702968 0.091607161 -0.85246044
26433775000 -0.41109943 0.43832296 0.10854693 -0.38925755 0.12520082 -0.4222475 -0.27802485 -0.83179605
26442053125 -0.14838926 0.60349607 -0.065253146 -0.36666882 -0.073207103 -0.41394797 -0.60760784 -0.65155458
26450331250 0.17913513 0.61188388 -0.19104287 -0.29013732 -0.23461154 -0.32590449 -0.82863736 -0.34995431
26458609375 0.47289327 0.444727 -0.27577728 -0.18990834 -0.33670843 -0.18714134 -0.89934421 0.0092016337
26466887500 0.64228344 0.14793378 -0.32670158 -0.070784271 -0.37108102 -0.02580932 -0.82080537 0.3555502
26475165625 0.64030772 -0.19400176 -0.33542505 0.067949571 -0.33480191 0.12777467 -0.61966717 0.62904215
26483443750 0.47131529 -0.4885073 -0.28209472 0.21140835 -0.24146011 0.24726848 -0.34230217 0.80225223
26491721875 0.18557368 -0.66383916 -0.15914945 0.32313064 -0.11313251 0.31411055 -0.028238302 0.86607248
26500000000 -0.13677526 -0.694417 0.02312112 0.31845373 0.023174409 0.31828299 0.29128027 0.81336689
